#  HZ   S   DB   R     50.0 
! Rohde & Schwarz ZVL13 2Ports - Version 3.20 - 1303.6509k13 SN: 100953
! Date: 2024-10-21 06:37:52
! Data & Calibration Information:
! Trc1:S11(TOSM) Trc4:S21(TOSM) Trc2:S12(TOSM) Trc3:S22(TOSM)
! 
! 
! 
 5.000000000000000E3     4.154749330675176E-2   7.179088584410841E-2  -6.043282195662415E1   3.326080888096691E1  -6.604568503813368E1   8.688590978206801E-1   4.474688108947066E-2  -3.836122926331099E-2  
 3.000497500000000E7     2.210565622739296  -6.958477698008061E1  -5.786115698981620E1  -7.993256103943976E1  -5.308594365006422E1  -1.228566891577486E2   9.955990798484707E-2  -6.033070593548279E1  
 6.000495000000000E7     2.481005255702484  -1.137863574429990E2  -5.419951755597989E1   5.633889148926213E1  -5.898041805448233E1  -5.139735037763384E1   1.398908765436107E-1  -1.201758773097537E2  
 9.000492500000000E7    -3.479671667045750E-1  -1.725138624720342E2  -4.182113520143690E1  -1.008352110519478E2  -4.534698303652009E1  -1.061313453610392E2  -1.858987978791235E-1  -1.763245140183661E2  
 1.200049000000000E8     7.690958596661518E-1   1.170822341588571E2  -4.419769745625509E1   2.880908849167401E1  -4.218852740969658E1   4.887992281467817E1  -2.002135924271655E-1   1.271837937936656E2  
 1.500048750000000E8     2.032595024295976   6.904025340320057E1  -3.675760193778569E1   3.564350921729321E1  -4.067501154269775E1   4.522918885874016E1  -3.751445632233665E-1   6.803018087562080E1  
 1.800048500000000E8     1.288108297004520E-1   2.033127417479012E1  -3.926379244844948E1  -1.477324881124143E2  -4.379495731475733E1  -1.644872853339607E2  -3.206939318138463E-1   9.548394018630793  
 2.100048250000000E8    -6.407527676468540E-1  -5.751305746737793E1  -4.165534434004881E1   1.137839382853757E2  -4.259744112388987E1   1.271912340413575E2  -6.147701941285064E-1  -5.237662290785936E1  
 2.400048000000000E8     1.473822931596350  -1.117697076532986E2  -4.266638932344664E1  -1.442551415104690E1  -4.289778351418696E1  -2.960186509147080E1  -8.636269727771794E-1  -1.095060016824746E2  
 2.700047750000000E8     1.752988858095263E-1  -1.567738510341275E2  -4.189555678566060E1  -1.628677752659429E2  -4.591079736829069E1  -1.479220193709239E2  -8.835962557930638E-1  -1.671993367658272E2  
 3.000047500000000E8    -2.025257972801822   1.345885470221727E2  -3.991185027954030E1   9.897420245451636E1  -4.096090387098935E1   1.224041168397628E2  -9.178786658493291E-1   1.375953633202045E2  
 3.300047250000000E8     2.896785234971303E-1   7.682396516041797E1  -3.734496662194371E1  -2.782501596330970E1  -3.881603968359252E1  -2.425173225382619E1  -8.704240188929460E-1   7.948465503343752E1  
 3.600047000000000E8     2.667305482836113E-1   3.362613098927405E1  -4.001506402177095E1  -1.514227961153569E2  -4.082826509228353E1  -1.436181577296599E2  -1.233951961001822   2.132769009380150E1  
 3.900046750000000E8    -2.238978548569560  -2.607651347674261E1  -4.186119420029191E1   1.044318066972142E2  -4.187074992606806E1   1.083733674340518E2  -1.146097212795579  -4.000293337521154E1  
 4.200046500000000E8    -5.838682685041473E-1  -1.000663901894641E2  -4.354973329853851E1  -2.699565506314503E1  -4.316452686134748E1  -9.809688096544987  -1.393424966766824  -9.883098137487164E1  
 4.500046250000000E8     1.267114295231227E-1  -1.481920712068542E2  -4.491387629295941E1  -1.382508643818204E2  -4.491077847547254E1  -1.270413697069148E2  -1.683856064741303  -1.571807661510595E2  
 4.800046000000000E8    -2.240074622947880   1.604389973565245E2  -4.922831710116023E1   8.493379253210769E1  -4.867161983980072E1   9.013645433977234E1  -1.402789133297241   1.480821974635508E2  
 5.100045750000000E8    -1.906054579494735   8.947835568227289E1  -6.454146207733388E1  -2.176364004600419E1  -4.932155225063622E1  -2.441056551905854E1  -1.045322936183024   9.257522301720996E1  
 5.400045500000000E8    -2.790318756630708E-1   3.887041381190955E1  -5.938268432434670E1  -1.074183100298349E2  -5.531199341603213E1  -1.582702731047154E2  -1.222742794577298   3.192391809889937E1  
 5.700045250000000E8    -2.276277657657087  -8.308110046359298  -4.833632299014742E1   8.246218328825763E1  -4.789953305123080E1   9.911517535507601E1  -1.026658330835407  -2.942691815757748E1  
 6.000045000000000E8    -3.568176558606493  -7.998181258730533E1  -4.897033914470628E1  -2.281948259228961E1  -5.048699862033855E1  -4.503082670302402E1  -1.422572927949870  -9.026072034928625E1  
 6.300044750000000E8    -1.286709241974477  -1.399009925088896E2  -4.974150937159087E1  -1.408461284001395E2  -4.767896020661168E1  -9.305682436417376E1  -1.314374093530752  -1.513366788931517E2  
 6.600044500000000E8    -1.857022010813015   1.734186029075033E2  -4.664309596986360E1   1.621269798509188E2  -4.941061802003531E1   1.703816145319507E2  -1.365752616949834   1.497817353041231E2  
 6.900044250000000E8    -3.806188420589228   1.071005370361409E2  -4.892383152523453E1   5.524448660508556E1  -4.633691678189888E1   7.200745201268445E1  -1.128598604617821   9.369999047246651E1  
 7.200044000000000E8    -1.705021263773958   4.302169834969942E1  -4.947529363121947E1  -4.874248898768323E1  -4.977375258776795E1  -8.860412904324621  -1.544240464073469   3.254544865878587E1  
 7.500043750000000E8    -1.966593342593836  -3.593922485335234  -4.886589818143313E1  -1.771511081740764E2  -4.778854588179687E1  -1.193233647875279E2  -1.715042264730866  -3.144380886383271E1  
 7.800043500000000E8    -4.376618709805014  -6.905884952594809E1  -5.613020909131800E1  -9.631956121427471E1  -6.025805575081699E1  -1.441893829240163E2  -1.673852140018869  -9.540690073818672E1  
 8.100043250000000E8    -2.644601631488657  -1.411464225517107E2  -5.734250803453451E1  -1.752917245289529E2  -5.099059877955789E1  -1.220710729242262E2  -2.121596871449762  -1.561319803474335E2  
 8.400043000000000E8    -2.356680529058893   1.691528326976157E2  -5.338870184540374E1   1.460717311762493E2  -5.688979536318129E1   9.284455854469678E1  -2.165465335620429   1.417924713571521E2  
 8.700042750000000E8    -5.038431246956733   1.086232649701098E2  -5.486117920371710E1   5.910917475037530E1  -5.558669051750589E1   9.754750699053118E1  -2.375127400487107   8.296274617859960E1  
 9.000042500000000E8    -4.291539824517868   3.467787213282720E1  -5.506955035675006E1  -6.587657333233357  -5.043014781770611E1  -1.900532217069900E1  -3.068544750177611   2.055522976393270E1  
 9.300042250000000E8    -4.390790802184812  -1.469975740120879E1  -5.242252655253288E1  -1.087518641868277E2  -5.199527113998303E1  -8.389949771263801E1  -4.240570839680967  -4.223492551163716E1  
 9.600042000000000E8    -8.953479735252655  -7.245767741218192E1  -5.326761478017985E1  -1.347506161907751E2  -4.583309901125389E1  -1.488088850625930E2  -4.720024350490150  -1.118316050287164E2  
 9.900041750000000E8    -8.557001457675494  -1.617595995209424E2  -5.103542876621256E1   8.314922146991658E1  -5.068852121146686E1   7.414644191806339E1  -5.781940628277712  -1.741339151922538E2  
 1.020004150000000E9    -7.216997095652210   1.567183221642326E2  -4.652966829857684E1   1.275172535292009E2  -4.867746055586087E1   1.185315609573822E2  -7.219955956191071   1.246064330182994E2  
 1.050004125000000E9    -1.202686687640175E1   1.128720006910686E2  -4.672293924359257E1   5.238594348526052  -4.643429158193833E1  -8.120841062864578  -6.933752369234265   6.024200539497160E1  
 1.080004100000000E9    -1.379374348780697E1   1.964628758266933E1  -4.128102034712175E1  -6.402705482017420E1  -4.074601420919215E1  -6.238903701742151E1  -8.282219896965213   2.150226571088806  
 1.110004075000000E9    -1.209009676243767E1  -2.292175444482271E1  -4.570744593603580E1  -1.453325463219462E2  -4.457581297922209E1  -1.486485476282654E2  -1.032340979636813E1  -6.514125576680529E1  
 1.140004050000000E9    -1.746331479060675E1  -4.433224409789760E1  -3.855758210167254E1   1.248116156880750E2  -3.755414818180260E1   1.221025812729844E2  -1.258034266804137E1  -1.415027746870937E2  
 1.170004025000000E9    -2.341200261392122E1   1.137671842111165E2  -3.858536194983604E1   6.242693798959648E1  -3.987819800182382E1   4.830055301903047E1  -1.341265578266061E1   1.536485464567405E2  
 1.200004000000000E9    -1.599855781533211E1   1.272616594529886E2  -3.902386902636349E1   1.697419074771442E1  -3.942620935312050E1   6.848889919734024  -1.701280267056524E1   8.785585204719862E1  
 1.230003975000000E9    -1.855832565430219E1   1.641409995599203E2  -3.540509197219245E1  -9.721647333306690E1  -3.573267141356857E1  -1.027699141096517E2  -1.839357575568899E1   3.156168119363328  
 1.260003950000000E9    -2.007404223640856E1  -1.454571253610318E2  -3.893621255306909E1  -1.610837819453001E2  -3.983413358808235E1  -1.552466399604566E2  -2.133659534928880E1  -4.369473740419046E1  
 1.290003925000000E9    -2.540401704155951E1  -1.059761019812547E2  -3.398963516644010E1   1.052233744876943E2  -3.495933322557701E1   1.159422771742224E2  -2.244001301902256E1  -1.756081300267214E2  
 1.320003900000000E9    -2.169109622197881E1   4.668945781011419E1  -3.318058126700055E1   2.351421681158741E1  -3.412825867096219E1   2.715402330559657E1  -1.701877290103650E1   1.088581630995172E2  
 1.350003875000000E9    -1.441597539988774E1   4.526646612435405E1  -3.663589232164055E1  -3.673044759100460E1  -3.708839329515174E1  -4.034831782142023E1  -1.730515295137571E1   6.086144799572022E1  
 1.380003850000000E9    -1.700592722550276E1   4.604216464266101E1  -3.831060999883899E1  -1.276403328608509E2  -3.799941373276870E1  -1.208943010328957E2  -1.747014087909018E1  -2.134395521788755E1  
 1.410003825000000E9    -2.594776210565141E1  -1.374122514767249E2  -3.644396979513811E1   1.592508056432332E2  -3.754405838041986E1   1.633421025261414E2  -1.582855212803961E1  -8.532946393553114E1  
 1.440003800000000E9    -1.457573218745301E1  -1.541925569063016E2  -4.006572098154514E1   1.098713689940716E2  -3.738750170490486E1   1.162390070764399E2  -1.548647998700851E1  -1.460523103414311E2  
 1.470003775000000E9    -1.467137902944861E1  -1.723763491494522E2  -3.574636055223247E1   2.310536837202889E1  -3.482952907916646E1   2.084217024938521E1  -1.479241415179540E1   1.411168223623836E2  
 1.500003750000000E9    -1.961813432303304E1   1.081386173458590E2  -3.583272905587160E1  -5.149271064487214E1  -3.586904042366596E1  -5.895447266854179E1  -1.192543341307404E1   8.854754185602135E1  
 1.530003725000000E9    -1.240915214781254E1   4.287342919470746E1  -3.609209801927995E1  -1.347324439258778E2  -3.621369417438624E1  -1.358874375349630E2  -1.281017710572307E1   3.079509850762740E1  
 1.560003700000000E9    -1.242831586207820E1   2.325664151680240E1  -3.613155796363873E1   1.453152509368210E2  -3.628294508785140E1   1.451684569625533E2  -1.339255905240071E1  -2.788495690570644E1  
 1.590003675000000E9    -2.151062021361688E1  -2.199335413083054E1  -3.579743095362936E1   6.633667016454943E1  -3.571054058328122E1   6.562153087903057E1  -1.210557417595891E1  -9.293020094008979E1  
 1.620003650000000E9    -1.526343186153558E1  -1.505096962718387E2  -3.607907765213219E1   2.094580031030607E1  -3.668436199948090E1   1.577319290751134E1  -1.231490838343341E1  -1.454660135819055E2  
 1.650003625000000E9    -1.297849844359337E1  -1.772996389537957E2  -3.564813379007547E1  -5.540374094644554E1  -3.559891716670195E1  -4.976231618994338E1  -1.316856128933111E1   1.459249465335104E2  
 1.680003600000000E9    -1.692240050839852E1   1.552730300532003E2  -3.647442587845497E1  -1.265921362848769E2  -3.418121669030855E1  -1.281944021882898E2  -1.091218298338589E1   8.633685940504446E1  
 1.710003575000000E9    -1.587127059406330E1   6.133978498458845E1  -3.473733951002938E1   1.512423123346140E2  -3.410055501722322E1   1.470396055068342E2  -1.096500487771576E1   3.754286598320408E1  
 1.740003550000000E9    -1.072397568914191E1   3.275372050226650E1  -3.225477796535949E1   6.456899425313532E1  -3.236483528947033E1   7.057418021556657E1  -1.296847350843899E1  -1.922669432842472E1  
 1.770003525000000E9    -1.341858243025363E1   1.116624700224518E1  -3.539388820250066E1  -6.627337480915696  -3.354392390566044E1  -7.332682351015933  -1.234334935446897E1  -8.514716275662025E1  
 1.800003500000000E9    -2.230549871678365E1  -8.040547447432870E1  -3.180207629778261E1  -8.788304542722017E1  -3.389298224944162E1  -8.781936991708450E1  -1.143588208026087E1  -1.405149207400698E2  
 1.830003475000000E9    -1.355143472908856E1  -1.490051771179126E2  -3.538574935625327E1  -1.498582974218002E2  -3.518193317689704E1  -1.548300867674830E2  -1.366701468927926E1   1.670375283220571E2  
 1.860003450000000E9    -1.204284908603678E1  -1.750959801783743E2  -3.407863385319605E1   1.200445477347045E2  -3.352503714640903E1   1.239236800104669E2  -1.266657065872609E1   1.066806925778649E2  
 1.890003425000000E9    -1.561637642160791E1   1.299764031611207E2  -3.952277950361612E1   4.067453457009145E1  -3.870896051828830E1   3.819123559633622E1  -1.040334086779698E1   5.411966620219075E1  
 1.920003400000000E9    -1.169470390267888E1   5.446274742372837E1  -3.496200220392793E1  -3.350178827820255E1  -3.384772845988530E1  -3.169788013660856E1  -1.090053672407495E1   1.047419685995312E1  
 1.950003375000000E9    -9.975290839706952   1.992990636587173E1  -3.699673173588406E1  -9.765857368133491E1  -3.625212750561807E1  -1.049750551487184E2  -1.181223906872064E1  -6.061216177213322E1  
 1.980003350000000E9    -1.439837696699774E1  -2.054949995318761E1  -3.802613362591697E1   1.798425212716875E2  -3.718633806433236E1   1.664728636433250E2  -1.051173738374594E1  -1.273226212221385E2  
 2.010003325000000E9    -1.514063958778671E1  -1.269351972955304E2  -3.970353907341904E1   1.111033112755268E2  -4.057198304936259E1   1.165171801998746E2  -1.097261344245491E1   1.799809880069745E2  
 2.040003300000000E9    -9.513798017145811  -1.661473122233877E2  -3.897054087605981E1   4.169452023839657E1  -3.804338299380092E1   4.307815661150480E1  -1.153903002846271E1   1.160585107311148E2  
 2.070003275000000E9    -1.122300393676457E1   1.510976097442445E2  -4.343126220078914E1  -3.717088688458357E1  -4.128926525457964E1  -4.009846353674359E1  -1.020923741369556E1   5.684650594487466E1  
 2.100003250000000E9    -1.280115320159184E1   7.711224425431047E1  -4.354886194313214E1  -9.501783836378097E1  -4.197135662466284E1  -9.389506616605087E1  -1.078999707953997E1   1.228458998524297E1  
 2.130003225000000E9    -9.642733707586448   2.198786362530111E1  -4.095590831561000E1  -1.629722724109594E2  -4.207711077837672E1  -1.673357093115401E2  -1.325722979443799E1  -4.847784456696522E1  
 2.160003200000000E9    -9.778183406656446  -1.018513668658720E1  -4.277325202253861E1   1.592038085168691E2  -4.712754597976188E1   1.249032848763641E2  -1.174827535244201E1  -1.171836127563629E2  
 2.190003175000000E9    -1.502427830091571E1  -9.155565966987062E1  -4.200817780118391E1   8.930986194987725E1  -4.207926793558807E1   9.268004045474255E1  -1.078305482774995E1  -1.670025487229075E2  
 2.220003150000000E9    -1.068836328962398E1  -1.639692041501837E2  -4.234615442308039E1   1.979467016000739E1  -4.340333872125727E1   1.209432480293694E1  -1.367392775220429E1   1.345186953983481E2  
 2.250003125000000E9    -1.048626117856360E1   1.619190060977555E2  -4.417099400045046E1  -5.858945465921565E1  -4.199461121775525E1  -6.227969690071716E1  -1.349109462913398E1   7.202109971547631E1  
 2.280003100000000E9    -1.385984933952829E1   1.130196543857786E2  -4.750686321739440E1  -1.130477611284577E2  -4.112292131727578E1  -1.000414854269097E2  -1.253915063465952E1   2.743218134807434E1  
 2.310003075000000E9    -1.244549615530669E1   3.544582383075590E1  -3.763086526386271E1   1.765645762766642E2  -3.726293124769045E1  -1.770231975031338E2  -1.538735480582298E1  -4.107355167290419  
 2.340003050000000E9    -1.114529566131733E1   7.650115366907629  -4.124611557797402E1   1.055185877416558E2  -4.203787141354820E1   1.158102081364101E2  -1.750508143042968E1  -7.234993764589142E1  
 2.370003025000000E9    -1.564593661399067E1  -1.927604900982845E1  -3.914480383992947E1   3.644390113842951E1  -3.883119120615577E1   2.231346670580581E1  -1.554722185474470E1  -1.352627650200940E2  
 2.400003000000000E9    -1.789719429193053E1  -1.464405161898599E2  -4.366158931730774E1  -1.142863612431432E1  -4.421014990475646E1  -2.167643099873231E1  -1.512551271314806E1  -1.695609636464683E2  
 2.430002975000000E9    -1.193510847800462E1   1.772534582291627E2  -3.980917699941585E1  -1.062398022444587E2  -4.039538743304772E1  -1.090425276693456E2  -1.783315008351244E1   1.238852094570069E2  
 2.460002950000000E9    -1.339850973711509E1   1.603669586643525E2  -3.893244591610704E1   1.715772170071194E2  -3.868890758852413E1  -1.788185625347700E2  -1.574110785000399E1   6.020735618869519E1  
 2.490002925000000E9    -1.817709416265365E1   8.195509037907404E1  -4.341965948433511E1   1.077305036730757E2  -4.187218895949678E1   1.150517351225608E2  -1.414143016684853E1   2.669764950975490E1  
 2.520002900000000E9    -1.384466359411856E1   2.447222844350023E1  -3.975685163020823E1   4.487838206792644E1  -3.869562637465387E1   4.186391864871919E1  -1.644728085936067E1  -9.750124417249689  
 2.550002875000000E9    -1.226594405199045E1   5.391079465434019  -4.812857944510967E1   2.148365268870624E-1  -5.291446835468027E1  -5.024175501298699E1  -1.963156551709221E1  -1.029713319799303E2  
 2.580002850000000E9    -1.981200718801823E1  -1.512418271333416E1  -4.003143091956278E1  -1.144456837662120E2  -4.136883641778362E1  -1.011265119920503E2  -1.543549446322951E1  -1.371767515846485E2  
 2.610002825000000E9    -1.900949542920060E1  -1.650640136149648E2  -3.724949700611317E1  -1.629440374294161E2  -3.833079475048114E1  -1.664993118382108E2  -1.683095089735615E1  -1.797236474906023E2  
 2.640002800000000E9    -1.279649711574636E1  -1.764981022907089E2  -3.879892325769373E1   1.212857578188491E2  -3.850086853519608E1   1.157785132757695E2  -2.126002387621485E1   1.100095158100257E2  
 2.670002775000000E9    -1.545579841390250E1   1.681574493099306E2  -3.688186323846625E1   6.295515123721371E1  -3.730390137199902E1   7.457075918559289E1  -1.477762458243734E1   5.234158500573729E1  
 2.700002750000000E9    -1.990090247053036E1   9.023217796386858E1  -4.137646410706676E1  -1.178612695525860E1  -4.059629216272537E1  -2.135104955147142E1  -1.512335451084696E1   3.220605253706425E1  
 2.730002725000000E9    -1.310388616359961E1   3.352973057130882E1  -3.888476669454995E1  -6.332252604628872E1  -3.876938633024450E1  -7.323204993523167E1  -1.721160916459997E1  -1.019947191259262E1  
 2.760002700000000E9    -1.157012758888805E1   2.202512951777382E1  -4.266515654107370E1  -1.524957616283300E2  -3.929358901890098E1  -1.599692678030272E2  -1.682146725101854E1  -9.784032295220450E1  
 2.790002675000000E9    -1.887142167311785E1  -4.149307850935722  -4.482152498140132E1   8.993183320491401E1  -5.081721036481110E1   1.148264081634103E2  -1.325239136219479E1  -1.388249530232106E2  
 2.820002650000000E9    -1.691039771913832E1  -1.401367506029266E2  -3.909911379442921E1   7.494102194077996E1  -3.959882230296615E1   8.299467734883756E1  -1.559043751450038E1  -1.797015558270083E2  
 2.850002625000000E9    -1.157874951636576E1  -1.629248411784009E2  -3.959356446419920E1  -6.182613161954105  -3.824898029025126E1  -6.591149206138637  -1.611283000623207E1   1.052794373868259E2  
 2.880002600000000E9    -1.405494519819091E1   1.642747628893436E2  -3.714626275573224E1  -6.543326292019994E1  -3.553732163344052E1  -6.657947678774119E1  -1.249560203511408E1   5.463157992748818E1  
 2.910002575000000E9    -1.628649128958503E1   8.306692113630587E1  -4.041373258415401E1  -1.433872196570403E2  -3.827287683605972E1  -1.373284678646593E2  -1.168693615046574E1   2.246301774118147E1  
 2.940002550000000E9    -1.053726698246525E1   3.084893200142917E1  -3.879651198480486E1   1.644447423041709E2  -4.063467115729556E1   1.508102547998551E2  -1.524925660420515E1  -4.037939849463164E1  
 2.970002525000000E9    -1.048043189834654E1   1.063217999444440E1  -4.324917447370306E1   4.226791780893947E1  -4.197539387222387E1   6.697291550818689E1  -1.189169692717826E1  -1.117041315671960E2  
 3.000002500000000E9    -1.735573373404696E1  -3.389820716470655E1  -4.123807286728398E1   3.975479296494171E1  -4.051590079283793E1   3.852473635625415E1  -1.214717013469356E1  -1.543992129133199E2  
 3.030002475000000E9    -1.211785766196444E1  -1.326738593540328E2  -4.355374780037071E1  -4.858339938714791E1  -4.753164409037237E1  -7.971644482472487E1  -1.007424322849905E1   1.516440401856661E2  
 3.060002450000000E9    -9.447346043384815  -1.739844377689242E2  -4.204882603534226E1  -8.326889574969330E1  -4.219323502715928E1  -8.938849226675781E1  -1.443930204648402E1   8.644955357368700E1  
 3.090002425000000E9    -1.139264677680049E1   1.552010111499112E2  -4.023973247046223E1   1.666644168069695E2  -3.927414320097393E1   1.707009956746448E2  -8.388407876168822   4.366937644957089E1  
 3.120002400000000E9    -1.193229374324079E1   6.455975090957239E1  -4.073138947859857E1   1.044790870441738E2  -4.288263659797244E1   1.036695303886514E2  -1.039179709455407E1  -6.384975082993312E-1  
 3.150002375000000E9    -9.217167311161035   2.484064632975679E1  -4.594835698246921E1  -1.883681812129854E-2  -4.558348974441353E1  -3.862525063668767  -1.134994036690920E1  -8.179665111379576E1  
 3.180002350000000E9    -1.042374429494671E1  -6.708088991197943  -3.859359883810482E1  -2.269708161609695E1  -3.857668226871194E1  -2.656298325824723E1  -9.506555257442532  -1.403861563395106E2  
 3.210002325000000E9    -1.259938641915604E1  -8.400057349811650E1  -5.159332858905368E1  -1.187850437762682E2  -4.758531674555533E1  -1.295826452698497E2  -8.834414870542314   1.796143277589056E2  
 3.240002300000000E9    -9.020992411557028  -1.508408386817857E2  -3.993145697178014E1  -1.588034893283616E2  -3.945789819483802E1  -1.662162209775704E2  -1.007205959610949E1   1.274151105960420E2  
 3.270002275000000E9    -7.398816620348746   1.700840430204577E2  -4.747115977209991E1   1.208479866641661E2  -4.788700826730290E1   1.384724591741926E2  -9.214280470853321   5.157835184246556E1  
 3.300002250000000E9    -9.794723588728372   1.161549274640784E2  -4.274917602258736E1   7.529889001665858E1  -4.489488710912915E1   5.068666918016479E1  -7.787453746072329   1.936633939909398E1  
 3.330002225000000E9    -8.130472213764181   4.958494092786723E1  -4.032723652026485E1   2.915923949424317  -4.006739487245387E1   1.480024874085297  -1.230519526920345E1  -3.856295130378064E1  
 3.360002200000000E9    -6.878430875671693   8.838878054697466  -4.922738987386563E1  -1.134919115341025E2  -4.298128463203637E1  -8.550858364090948E1  -9.780065380375397  -1.128438579005715E2  
 3.390002175000000E9    -1.026138422705811E1  -2.977229761010887E1  -4.340184168136260E1  -1.134936710256958E2  -4.154281512116787E1  -1.284838617753858E2  -8.368850050852442  -1.616113213268067E2  
 3.420002150000000E9    -9.335515219744023  -1.272559985310727E2  -4.411526912549832E1   1.245037236423581E2  -4.789110466835054E1   1.059869627431331E2  -1.215259278432029E1   1.621132372179311E2  
 3.450002125000000E9    -6.766447599512725  -1.685229069771183E2  -4.000768056270994E1   1.010748895222017E2  -4.174600255431815E1   9.199546174492171E1  -9.007411247196599   7.483801689790651E1  
 3.480002100000000E9    -8.599726546850302   1.562060101004240E2  -4.937472599332165E1  -3.370899231242502E1  -4.811019985985683E1  -1.222121170665492E1  -7.149598416766017   3.268929832583939E1  
 3.510002075000000E9    -1.023905673814225E1   8.312044482097235E1  -4.249360887629015E1  -2.897748127073841E1  -4.154923276509191E1  -3.882473023537570E1  -6.971648725742559  -7.582254848251832  
 3.540002050000000E9    -6.338224535019003   2.382520606955134E1  -4.412837242643564E1  -1.557211705250318E2  -4.304177365400508E1  -1.341967941033352E2  -1.166386567587489E1  -7.409130531363167E1  
 3.570002025000000E9    -6.717369012366994  -1.234306763054776E1  -4.744427283182316E1  -1.780923244644521E2  -5.090784600834854E1   1.793212454516007E2  -7.333741411685828  -1.448795732160868E2  
 3.600002000000000E9    -1.041387768140140E1  -7.554543687267288E1  -4.878905108273709E1   7.403198551987337E1  -4.570392768722644E1   1.100220813051692E2  -5.243171597937902  -1.778494511706091E2  
 3.630001975000000E9    -6.931926862491167  -1.537175382931889E2  -4.302580127562797E1   4.017121708422098E1  -5.023358137114324E1   2.868027993414271E1  -8.505763267106117   1.156068506031996E2  
 3.660001950000000E9    -4.989325223067342   1.746011212940624E2  -4.775764194246542E1  -5.499775866387738  -4.852439816561525E1  -6.606687902816828  -8.125253888559387   4.021250878964683E1  
 3.690001925000000E9    -8.538658072625516   1.326825658916926E2  -4.661235636361538E1  -5.538047842098313E1  -4.404501730612434E1  -7.072975834231292E1  -6.622094479447664   1.059000393943804E1  
 3.720001900000000E9    -8.010448030691087   4.063806462805680E1  -5.041992043166579E1  -1.636860844008827E2  -4.422056888320235E1  -1.721989698897226E2  -8.712650033223451  -4.989399897317488E1  
 3.750001875000000E9    -5.148710571802628   2.432926953497839  -4.431218034206177E1   1.485960795772302E2  -4.286738068675031E1   1.585647178106721E2  -8.780040177105251  -1.310298148910750E2  
 3.780001850000000E9    -6.910071611424792  -3.564098849621243E1  -4.406274450673889E1   7.019894886436580E1  -4.294232355484428E1   5.425992746232309E1  -6.745403433342958   1.779384538621851E2  
 3.810001825000000E9    -8.446066807958305  -1.142764578040057E2  -4.755693319378649E1   3.047910006164547  -4.554305845154781E1  -3.984686000237048E1  -7.128106281384658   1.500438258908715E2  
 3.840001800000000E9    -4.886371148950338   1.791271453602336E2  -4.370189287794370E1  -1.021252159647582E2  -5.153476226032434E1  -1.152251423757553E2  -9.097905264672104   5.801665017397099E1  
 3.870001775000000E9    -5.537190758475216   1.523851066638705E2  -4.954568910783572E1  -1.413563529192255E2  -4.639424342249460E1  -1.533688317015282E2  -5.482796744916646   5.825576828270441  
 3.900001750000000E9    -7.675433481536639   9.414805543145302E1  -4.388390555302632E1  -1.750219627345759E2  -4.385209624090159E1   1.701901986962527E2  -5.144518601671360  -2.379943130706543E1  
 3.930001725000000E9    -6.756532821388428   1.636107116585064E1  -4.808981882029212E1   3.465250509002176E1  -4.700076250688676E1   3.891271654450266E1  -1.054405498502816E1  -1.169156916299749E2  
 3.960001700000000E9    -5.608005192813421  -1.881154252100577E1  -4.691298520605702E1   1.837990345833903E1  -4.680504927994852E1   2.498941886266890E1  -8.100353840495229   1.762659700711071E2  
 3.990001675000000E9    -9.051588866877591  -9.153969012875240E1  -4.359961381349500E1  -6.355816682965598E1  -4.343085419397057E1  -5.963377579226941E1  -5.659487785982598   1.494153260544850E2  
 4.020001650000000E9    -7.880753490805466  -1.712010798439672E2  -5.216197671091237E1  -1.048128122455579E2  -4.755150539094372E1  -1.072749672522674E2  -9.393371397142220   1.008612530058331E2  
 4.050001625000000E9    -4.970787101276140   1.549745499119102E2  -4.476177089355709E1   1.576272069093076E2  -4.767485815394383E1   1.204393023732789E2  -9.302243333335465   1.026993835391323E1  
 4.080001600000000E9    -7.274875448618664   1.226246180433726E2  -4.865101911373746E1   7.991147905640956E1  -4.588014313269667E1   1.103213359957618E2  -6.424374384643861  -2.831282703207127E1  
 4.110001575000000E9    -8.993554452905922   2.780132379095847E1  -4.334314621165383E1   2.386354098283693E1  -4.526482830141973E1  -2.784204998592839  -8.910463220732646  -5.101964564613024E1  
 4.140001550000000E9    -5.606570550110086  -1.546705340265448E1  -4.938180826172903E1  -6.337662641832778E1  -4.881022255284194E1  -7.470298207596433E1  -1.036883520515948E1  -1.522135697871638E2  
 4.170001525000000E9    -7.630706643697732  -5.551039120757779E1  -5.003999845834844E1  -1.396145902931423E2  -4.790267798303501E1  -1.586010249063390E2  -8.259981897627993   1.504435951296993E2  
 4.200001500000000E9    -1.158466515208776E1  -1.408945840741788E2  -5.115085467855662E1  -1.715464674318568E2  -4.702988971286734E1   1.634744329422636E2  -9.182949662257055   1.142956382919947E2  
 4.230001475000000E9    -8.281967380580166   1.583176183948440E2  -5.310669525542777E1   4.442253716095450E1  -4.401848101946642E1   5.079710301212713E1  -1.801056137385035E1   4.231941166744582E1  
 4.260001450000000E9    -6.161622972674564   1.355058675678030E2  -5.217504979553063E1   6.141879085868645  -5.078167443288363E1   2.228945567427648E1  -8.962846175430432  -2.448689261317894E1  
 4.290001425000000E9    -1.156821223721899E1   8.044339987522366E1  -5.019410068983164E1  -1.099141160588670E2  -4.927965301026725E1  -4.508249518440859E1  -5.997419191628756  -4.827837178901289E1  
 4.320001400000000E9    -9.347632438106182  -1.503114752772643E1  -4.747765256648741E1  -1.767095711082093E2  -4.778910241335322E1  -1.457734862979427E2  -1.749413317715639E1  -9.688831217695746E1  
 4.350001375000000E9    -8.380664554445390  -3.916754138959534E1  -5.435223508116298E1   3.401747504168419E1  -4.698303196500456E1   6.471639175596462E1  -9.951898824594556   1.390609579251207E2  
 4.380001350000000E9    -1.339427539755480E1  -7.277521517057623E1  -5.335395253410542E1   1.493697189682935E1  -5.307739278775765E1   8.226214712526459E1  -9.123313240538881   1.240426863305844E2  
 4.410001325000000E9    -1.460837200839815E1   1.593830783488911E2  -4.797383999084637E1  -1.175277462898949E2  -5.914647206223259E1  -1.358298441380527E2  -1.084061163676533E1   1.100376848335705E2  
 4.440001300000000E9    -8.433019912286587   1.359748063106763E2  -5.426085049867328E1  -1.519860582683307E2  -5.390793713327424E1   1.438097131613859E2  -1.638165755925373E1  -4.343683343445161E1  
 4.470001275000000E9    -1.053505046177146E1   1.116373026326697E2  -4.223407205588610E1   8.848809858968420E1  -4.442958808823124E1   6.534499937649720E1  -9.363036694453893  -5.336682081526562E1  
 4.500001250000000E9    -2.413626478473538E1   7.551911517185323E1  -5.112710058922809E1  -7.435581605503363E1  -5.203107761888758E1  -6.508253152095382E1  -9.136122353254764  -5.266564443539836E1  
 4.530001225000000E9    -1.016539599169193E1  -4.039731899734510E1  -4.601831607826426E1  -8.235813923523375E1  -4.420892113773623E1  -6.416373669910787E1  -2.646081491931841E1   1.242906418516999E2  
 4.560001200000000E9    -8.969781544274913  -5.194510642991351E1  -5.144103016802938E1  -1.275696642519087E2  -4.762573988988716E1  -1.568485211202051E2  -1.019024602979885E1   9.849206952711599E1  
 4.590001175000000E9    -1.893582916015007E1  -5.580393013236504E1  -4.750486508874172E1   1.032779154585473E2  -4.892862549537668E1   1.244935797639881E2  -9.402642856276680   9.221991260332366E1  
 4.620001150000000E9    -1.263825715493062E1   1.272588659878899E2  -4.981078901718797E1  -1.696382831953679E1  -5.565928743798451E1   6.415585067389415E1  -2.007530947545564E1   8.568099422331015E1  
 4.650001125000000E9    -8.685312863890529   1.217419333764357E2  -5.057221246295251E1  -2.337345307302502E1  -5.133524123986974E1  -6.270356091561158E1  -1.075537260809802E1  -6.613754476536558E1  
 4.680001100000000E9    -1.244449477052450E1   1.376635414323633E2  -4.391557422536445E1  -1.510785489380475E2  -5.411235993063357E1   1.631058818232894E2  -6.977198301727361  -8.186897825632549E1  
 4.710001075000000E9    -1.721189459750913E1  -8.131716891866670E1  -4.740267011912234E1   1.290340729490721E2  -5.760905483261292E1   1.588099546137054E2  -1.155874706773140E1  -8.006494769681048E1  
 4.740001050000000E9    -9.628236309369598  -7.417134958512727E1  -5.702191774246637E1   1.196843922399528E2  -5.485841501608040E1   3.921784446901415E1  -1.414830537974474E1   8.684806909961533E1  
 4.770001025000000E9    -1.416161448743050E1  -6.931158562381661E1  -4.973262854462105E1  -7.005052679110007E1  -6.357239303470340E1   1.799063036911833E2  -9.691542604036723   7.937773856013389E1  
 4.800001000000000E9    -1.882942537694420E1   3.418665044901535E1  -4.643487917752211E1  -1.601271546045145E1  -4.974915676853865E1  -1.004311481689360E1  -1.057990453642840E1   9.379550824905307E1  
 4.830000975000000E9    -1.268859061539833E1   9.546256871665507E1  -5.842237287394805E1   1.106609175678201E2  -5.108289857740520E1   1.313348924183302E2  -2.019619844850833E1  -5.233658420997674E1  
 4.860000950000000E9    -1.317633019430333E1   1.083834556553688E2  -5.352606093945617E1  -1.078175617882407E2  -5.112297953829499E1  -1.424696656673833E2  -6.602488524948871  -1.156351958750426E2  
 4.890000925000000E9    -1.574242630403842E1  -1.700434470876017E2  -5.927274470674860E1  -1.404076689992492E2  -6.019981768283268E1   1.689856528664890E2  -6.592847117440278  -9.385269296773109E1  
 4.920000900000000E9    -1.288551558159294E1  -1.184546861706163E2  -5.347395819503637E1   9.849404786609688E1  -5.943765470173032E1   9.726567474513766E1  -3.188489397821019E1  -1.757938807069313E2  
 4.950000875000000E9    -1.403945773895230E1  -8.410303513575681E1  -5.831337722877714E1   1.433580626148690E2  -5.869438064195716E1   1.948181507927831E1  -1.018329439718210E1   7.049033880490325E1  
 4.980000850000000E9    -1.294966173425146E1  -4.710672943977021E1  -6.888973988437857E1   8.196442078211619E1  -5.898205083545413E1   7.351351079215171E1  -7.333131878263314   5.113781759150022E1  
 5.010000825000000E9    -1.484363390807365E1   4.125905851678107  -4.940693634171569E1  -7.762710458832893E1  -5.539974485217360E1  -3.409415043123649E1  -1.239127822761662E1   2.548972233831904E1  
 5.040000800000000E9    -1.596778641325306E1   9.250821836354795E1  -5.061930618203863E1  -1.152729989995728E2  -5.374733047925451E1  -1.299495591607494E2  -1.183421270225452E1  -1.088113598100360E2  
 5.070000775000000E9    -9.657231007570044   1.416577856921963E2  -5.848051881130822E1  -1.208626832566636E2  -6.149600470766745E1   1.266885363563439E2  -6.614664410091046  -1.259984756353257E2  
 5.100000750000000E9    -1.041706937816852E1   1.513144851286663E2  -5.861407796409528E1   1.110179026888728E2  -5.747027686811116E1   1.245088046568940E2  -1.119703198591468E1  -1.407326766405692E2  
 5.130000725000000E9    -3.067622667087610E1  -1.324842548663036E2  -6.384171564293595E1  -2.558538137320031E1  -5.796542714971850E1   6.896571822064438E1  -1.482510440135849E1   6.457052444259425E1  
 5.160000700000000E9    -1.166584839497172E1  -4.065165798273616E1  -5.243868741353170E1  -4.207578068963240E1  -5.989818775616740E1  -1.138051411751741E2  -8.233810073670176   3.169907756628857E1  
 5.190000675000000E9    -1.103410885162629E1  -4.492512673852666E1  -5.511887435633925E1  -4.733341481719133E1  -5.531232219399114E1  -8.746162941591796E1  -9.090030313748178   2.441675916053549E1  
 5.220000650000000E9    -2.267160482540394E1  -8.218852035325763E1  -6.296252149419033E1  -1.278586394290270E2  -5.767090538972343E1   1.756902309011459E2  -1.575108728754251E1  -1.228296668932243E2  
 5.250000625000000E9    -1.266197056758554E1   1.230074042198338E2  -5.284456286084324E1  -1.659773180798545E2  -5.374688826557950E1   1.572792838080918E2  -6.411747253570647  -1.474149032475600E2  
 5.280000600000000E9    -6.362788326153773   1.238143490332443E2  -6.935218434035294E1  -3.369660204349364E1  -5.714144725380925E1   2.672803531808329E1  -8.364000322800505  -1.596683363794633E2  
 5.310000575000000E9    -1.332584094189105E1   1.005655200757524E2  -5.846713624092141E1   4.969899926377272E1  -5.981263163311820E1  -3.709726681671898E1  -2.409104762121218E1   1.202559916407049E2  
 5.340000550000000E9    -1.033354080762914E1  -4.189787225319456E1  -5.894875541290491E1  -6.442321520893329E1  -6.434018318975699E1  -2.583039787982052E1  -9.152720246008688   2.213254157090703E1  
 5.370000525000000E9    -7.861731370341837  -6.802203525712318E1  -6.479011246325359E1  -9.493682732883161E1  -6.527625880359963E1  -3.887948247660440  -9.274798216253847   1.439188419530797E1  
 5.400000500000000E9    -1.058044059410296E1  -1.049326692775552E2  -5.951940795298753E1  -1.781276172466036E2  -5.410083904610515E1   1.542076122662621E2  -2.139078286525421E1  -6.341737578300678E1  
 5.430000475000000E9    -1.522143716769804E1   1.789241920007505E2  -5.221173096536089E1   9.075460677345137E1  -5.465199273780898E1   1.197876808366949E2  -1.048027768068888E1   1.788809058848106E2  
 5.460000450000000E9    -6.906396982070804   1.027570077270935E2  -5.273314541566602E1  -3.644742646584168E1  -6.405694340164300E1   3.851152397787089E1  -7.700505554926036   1.728094556313645E2  
 5.490000425000000E9    -7.225199379416076   8.337639977285438E1  -4.996357457601008E1  -6.934710103606092E1  -5.841671341419644E1   1.376615577394560E2  -1.423327084870763E1   1.418637314976343E2  
 5.520000400000000E9    -1.459698285358970E1  -1.018667174406963E1  -5.554961686747541E1  -3.504018104844636E1  -5.104139829134955E1  -1.017355708460614E2  -1.486030004791065E1   3.785001949273382  
 5.550000375000000E9    -5.581675786572403  -7.727652483773004E1  -5.366958750970719E1   1.538624621534236E2  -8.073823040629605E1  -1.648019581662201E2  -9.895883420953901  -1.737909961034223E1  
 5.580000350000000E9    -7.733131338275829  -1.031386123826710E2  -4.964421568211556E1   1.477755057126474E2  -4.974633016658282E1   1.460290541965025E2  -1.710972273663662E1  -1.486114705310241E1  
 5.610000325000000E9    -1.103820159117285E1  -1.600770935901711E2  -6.361066460735166E1   7.318723732700005E1  -5.958762394713610E1  -3.680662468158193E1  -2.132283664968334E1   9.119769775538008E1  
 5.640000300000000E9    -7.737232390609635   9.444110561877207E1  -5.446985625066044E1   6.805559699696697E1  -5.014890095580421E1  -9.321308277204100  -1.117766430412283E1   1.489599613500721E2  
 5.670000275000000E9    -3.534399743413635   7.122106766544350E1  -5.439850228663099E1  -1.271459627386426E2  -4.612244571835503E1  -8.835423488192785E1  -1.337402887988710E1  -1.752683840136237E2  
 5.700000250000000E9    -1.026050466052099E1   2.453663209214583E1  -5.432731227988266E1  -1.214015229949805E2  -5.255393198945023E1  -1.559007747727272E2  -1.598921661111899E1  -7.686751730372376E1  
 5.730000225000000E9    -5.987192859657918  -7.803367583031236E1  -5.583633846379523E1   1.646853036296513E2  -5.613307934770112E1   1.545732276467945E2  -1.388942297959266E1  -4.758030497052060E1  
 5.760000200000000E9    -4.550128383578816  -1.171486449346543E2  -6.110723022758879E1   1.454257060981067E2  -5.077034719540258E1   6.615805418509564E1  -1.714558021525484E1   8.126210324972972  
 5.790000175000000E9    -8.566652586474577  -1.476973630050441E2  -5.644174129859652E1  -1.446942680592696E2  -5.232510976464228E1  -3.248479039606708E1  -1.163506929640231E1   3.419260845222238E1  
 5.820000150000000E9    -7.798235051312284   1.202863867942426E2  -5.214816219598521E1   1.484227334896276E2  -6.886364489883165E1   3.198597058552254E1  -2.276335900595913E1  -1.847494640649820E1  
 5.850000125000000E9    -3.849318990369311   5.590117363732192E1  -5.775148870813995E1  -1.613049325097045E2  -5.200696027124669E1   3.202914362222681E1  -1.300647515831691E1  -1.533156673733078E2  
 5.880000100000000E9    -5.677774547537082   2.904460068018899E1  -5.911701236703026E1  -9.438351417247320E1  -6.205135149131186E1  -1.401429500899968E2  -4.409766615020409  -1.567631062672353E2  
 5.910000075000000E9    -1.011391682284193E1  -5.878032244264866E1  -6.296783112036861E1   1.752137065870026E2  -6.088526033028451E1   1.338854515954284E2  -1.010583150353926E1  -1.707766885948246E2  
 5.940000050000000E9    -4.324764465131443  -1.164848101098690E2  -5.869346390375012E1  -1.731586895682118E2  -5.286834432995317E1  -1.479607892451852E2  -1.054455680761985E1   6.455736772548889E1  
 5.970000025000000E9    -5.569328783850451  -1.432447061475507E2  -5.901056893982313E1   6.917111940221312E1  -5.616934921851447E1  -1.530396038546448E1  -8.632398256268424   1.709562835270919E1  
 6.000000000000000E9    -1.006009453473087E1   1.630121259947470E2  -5.231584286684473E1   2.033198426269764E1  -5.712164215176055E1  -2.423297634091716E1  -1.020652400015819E1  -1.833376690797205E1  
