#  HZ   S   DB   R     50.0 
! Rohde & Schwarz ZVL13 2Ports - Version 3.20 - 1303.6509k13 SN: 100953
! Date: 2024-10-21 06:04:29
! Data & Calibration Information:
! Trc1:S11(Cal Off) Trc4:S21(Cal Off) Trc2:S12(Cal Off) Trc3:S22(Cal Off)
! 
! 
! 
 5.000000000000000E3     4.140809264487607E-2  -1.758684150490876E2  -5.872809992812896E1  -1.327172038606807E2  -5.657902434920325E1   1.342329492517537E1  -9.179260636737359E-2  -2.893656418303829E-1  
 3.000497500000000E7    -6.883891084969418E-1   6.903129256678137E1  -6.930267569864390E1  -2.325741588889727E1  -7.032346105152011E1   8.124324066282976E1  -2.676396820294028E-1  -1.112383127384578E2  
 6.000495000000000E7    -4.300023352178424E-1  -3.975647164960253E1  -6.033876680900036E1   1.538701919585530E1  -6.248681119752509E1  -1.656464988997971E2  -3.824097649750632E-1   1.386725553958844E2  
 9.000492500000000E7    -3.551843256197975E-1  -1.503126333278269E2  -6.526666480537060E1  -6.741710465220933E1  -6.070193076639960E1   3.217441840430696E1  -5.354296546304870E-1   2.791868722268143E1  
 1.200049000000000E8    -4.243413591418681E-1   9.608812212638833E1  -5.987455105578736E1  -1.475643950055711E2  -5.550547795911527E1   8.293609188368289E1  -4.513395702613742E-1  -7.737574362278430E1  
 1.500048750000000E8    -7.929837868406399E-1  -1.345847388611982E1  -7.175360401243850E1   1.098146994267923E2  -6.536189121437703E1  -1.342469615481026E2  -5.987514733878769E-1   1.739104103157210E2  
 1.800048500000000E8    -1.080540134098905  -1.260356765458511E2  -6.159575944027458E1  -1.279438172970987E2  -6.054545018724053E1   1.429449529807943E2  -6.951119444902734E-1   6.506069106821437E1  
 2.100048250000000E8    -1.137821288399767   1.261968469528721E2  -6.456421308182340E1  -7.239910695315358E1  -7.170544097785999E1   3.831837171167488E-1  -6.249995563786054E-1  -4.264698465144636E1  
 2.400048000000000E8    -9.785448686260398E-1   1.710584920004478E1  -6.012192187221869E1   1.734032834074040E1  -7.116194411997914E1  -7.115209915689415E1  -6.968647610384245E-1  -1.566792799149639E2  
 2.700047750000000E8    -7.541492508248121E-1  -9.204599846389372E1  -5.738705877811327E1  -7.068228276083401E1  -7.508250257401863E1  -1.391991390709503E1  -8.897930135795195E-1   9.392548657021396E1  
 3.000047500000000E8    -8.303723609963523E-1   1.586977324426980E2  -6.710217759054206E1  -3.623088750499698E1  -6.796568528510738E1   5.556192109025957E1  -9.121773924011561E-1  -1.660047892338994E1  
 3.300047250000000E8    -1.081214279759613   4.392251803822909E1  -6.139623975555242E1   9.410670964649033E1  -5.944895381500486E1  -1.492019424322563E2  -9.609950689849887E-1  -1.239595392580280E2  
 3.600047000000000E8    -1.188913516202036  -6.475260754958573E1  -5.882518446235087E1   1.752813853307097E2  -5.981093675158201E1   3.929234923793860E1  -9.193134840543734E-1   1.322573480818805E2  
 3.900046750000000E8    -1.646360638296223  -1.771655702426506E2  -7.748557455723086E1   6.632336458415281E1  -7.076768523319485E1  -9.933043285293567E1  -8.233847182960253E-1   2.087703421769469E1  
 4.200046500000000E8    -1.569564347619538   7.485524546183119E1  -5.566619546718923E1  -1.919665521195955E1  -6.257474233000645E1  -7.054889848616436E1  -9.256623227059865E-1  -8.693820166068997E1  
 4.500046250000000E8    -1.266996513800909  -3.082280228022304E1  -6.537876138340836E1  -6.970162116806951  -6.638178527274589E1   1.179522823780067E2  -1.220234685592432   1.628702141835021E2  
 4.800046000000000E8    -1.022734364797269  -1.432286955140869E2  -5.484018357716698E1   8.765010068669400E1  -7.959593410733973E1  -1.425556166580761E2  -1.296986175148186   4.667838149116794E1  
 5.100045750000000E8    -1.215703248897016   1.099725429319583E2  -6.312720982051361E1   1.746979876782893E2  -6.523449355589825E1  -1.513691061463587E2  -1.191033176951930  -5.891137723885637E1  
 5.400045500000000E8    -1.377807213246240  -5.356814242888482  -6.316273805725359E1  -1.775411472725885E2  -6.007395288802122E1  -3.233432991414003E1  -1.254456498394908  -1.658510204315470E2  
 5.700045250000000E8    -1.498186365483078  -1.165186141965651E2  -6.265410674397334E1   6.918912248582198E1  -5.630613168039654E1   1.574422838782726E2  -1.076343600297615   8.767504521729302E1  
 6.000045000000000E8    -1.980538490533731   1.342237347089206E2  -6.814074030236191E1   1.586241629977521E2  -6.611405496647956E1   1.122619099730348E2  -1.048338125439941  -1.600743261711448E1  
 6.300044750000000E8    -1.500914655765905   2.303047222458900E1  -6.551641198533676E1  -5.751338707402439E1  -6.006919190417114E1   9.555210676108420E1  -1.338808336196258  -1.287472600728990E2  
 6.600044500000000E8    -1.325278389286344  -7.853571049061070E1  -6.494936176892995E1  -1.160198606828580E2  -6.576892830836506E1   4.730793675608405E1  -1.394115976854160   1.202550754426084E2  
 6.900044250000000E8    -1.227712471616328   1.692775623746011E2  -6.083758440470438E1   1.178614053641388E2  -6.011899728978874E1   1.418070895304959E2  -1.581695430071965   8.767849697336274  
 7.200044000000000E8    -1.542341372422387   5.968278701258928E1  -6.061193773439150E1   3.967786613777033E1  -6.461399433134075E1  -1.674280394546651E2  -1.490199423455404  -1.042836482114542E2  
 7.500043750000000E8    -1.793799424922377  -5.347440208978917E1  -7.361049268862618E1   1.042075431172332E2  -6.900528535253137E1  -1.973152057386461E1  -1.434534980702331   1.543051222835765E2  
 7.800043500000000E8    -2.112863815958754  -1.683456124358221E2  -5.751716952316583E1   1.003640782764711E2  -6.425187057773842E1  -1.509814449335259E2  -1.329143019864412   4.940521855710993E1  
 8.100043250000000E8    -2.175182903327876   8.810845714981777E1  -6.343604492113718E1   8.138234037758387E1  -6.418669320924602E1   1.369815037768553E2  -1.233850815668622  -6.142938905554524E1  
 8.400043000000000E8    -1.644530242142332  -2.419662618013113E1  -6.302244662222062E1   1.693286630011379E2  -6.199779185297543E1  -3.527640339245594E1  -1.463991942532121  -1.667779277786524E2  
 8.700042750000000E8    -1.559458464363937  -1.287993320444013E2  -6.316802140654334E1   1.149690091506065E2  -6.551099676688327E1   6.816948204456082E1  -1.639426252547913   7.654911981678367E1  
 9.000042500000000E8    -1.567436701591416   1.244070882740788E2  -5.600566727191833E1  -1.255009342236068E1  -5.728521849502127E1  -1.465248251560671E2  -1.659335700646552  -3.701355256388519E1  
 9.300042250000000E8    -1.688359531273873   7.676725350919051  -6.335513531500150E1   4.355246961880622E1  -6.697039871894863E1   1.556706657913475E2  -1.442134666861848  -1.435497076686087E2  
 9.600042000000000E8    -2.143622470853952  -1.023401308061543E2  -6.256319523488068E1  -9.051124487718123E1  -5.858202697112070E1   3.975407720801655E1  -1.214503964675188   1.070076657951351E2  
 9.900041750000000E8    -2.328048782323553   1.425186792504243E2  -6.136076310820074E1  -3.395327104246083E1  -5.056972770311312E1  -1.762964971893177E2  -1.272054357022080   6.991515541347469  
 1.020004150000000E9    -2.299485995737523   3.926861138080892E1  -6.114855139530199E1  -3.711725798082933E1  -6.465837618224627E1   4.978277299015653  -1.446905166389379  -9.878659106856183E1  
 1.050004125000000E9    -1.625315616374191  -6.871713321038479E1  -5.716518814844880E1  -1.310975024372608E1  -6.356699462934001E1  -1.249596894116938E2  -1.626617863033563   1.468740315121711E2  
 1.080004100000000E9    -1.568987626840962  -1.785987920677949E2  -5.638307558921365E1   1.464886491207636E2  -5.648437787873822E1   5.413602581857332E1  -1.821605961376068   3.669509542619580E1  
 1.110004075000000E9    -1.733999180923105   7.558697961711820E1  -7.631644758132430E1  -1.690267511924560E2  -5.573141026065490E1   2.962415941667842E1  -1.682563147994442  -8.177758226751071E1  
 1.140004050000000E9    -1.918570145495488  -4.217909896956216E1  -5.633683529210093E1  -1.465237718969248E2  -5.718950604185646E1  -1.529744084275229E2  -1.589816758296389   1.701575320616068E2  
 1.170004025000000E9    -2.441560889226807  -1.544941528209221E2  -5.755112858459248E1   2.795714539015988E1  -7.052340590191700E1   1.084363253721551E2  -1.573101444605269   7.014396289014401E1  
 1.200004000000000E9    -2.242868859740159   9.633294857312149E1  -5.957132164583735E1  -7.663023582467962E1  -5.382198226270903E1  -1.794063200449816E1  -1.385904744903660  -3.865409307458108E1  
 1.230003975000000E9    -2.161987928919694  -1.271628003292243E1  -6.197495325145280E1  -2.320419493262881E1  -5.874809269472164E1   1.621710625751748E2  -1.689608212024934  -1.427936230909861E2  
 1.260003950000000E9    -1.802811656579708  -1.150064578608044E2  -6.294267959720565E1   1.325463521762035E2  -6.203371922331547E1   1.290212924920163E2  -1.651398519692098   1.080486381487704E2  
 1.290003925000000E9    -1.632104946668942   1.321261612672998E2  -5.612094247727740E1  -1.741928681159992E2  -5.913467908991617E1  -3.435992095972771E1  -2.049494763766653  -1.335200956563295E1  
 1.320003900000000E9    -2.185702555475761   2.433040913029189E1  -5.299984259480279E1   1.325533399302159E2  -6.162094234506240E1   4.375768583614126E1  -1.821845985991077  -1.226483375325738E2  
 1.350003875000000E9    -2.201864225591334  -9.270727030637359E1  -5.795603575189541E1   1.092806544771958E2  -5.817744679323465E1  -1.152524615611686E1  -1.470352072471368   1.301733963753544E2  
 1.380003850000000E9    -3.108802385770960   1.525026849728561E2  -6.922005318464386E1  -6.021899267149986E1  -5.579037750251492E1  -4.523168534146668  -1.933329871162286   2.503929156593294E1  
 1.410003825000000E9    -2.287981139355782   5.007408229194602E1  -6.582660022319035E1  -6.527217235138357E1  -5.804510673347881E1   8.531787033748998E1  -1.549775594974266  -7.431133860117187E1  
 1.440003800000000E9    -2.341274742745617  -5.979340940242820E1  -5.666219581699607E1  -6.128632013124748E1  -5.495293508770861E1  -2.160528942796458E1  -1.740324437244876   1.746610103572432E2  
 1.470003775000000E9    -1.917768279204006  -1.648127923937543E2  -5.454809000040127E1  -1.349213050367088E2  -5.683704444292501E1  -1.157804411182874E2  -2.364712137925324   6.366928075091332E1  
 1.500003750000000E9    -1.541103863850228   8.743774998707210E1  -6.235918620456614E1   5.169232087614829E1  -6.479089248758888E1  -9.150329386890699E1  -1.733889164845692  -5.059898842640434E1  
 1.530003725000000E9    -2.778178337206312  -2.895750786654559E1  -5.221689349517672E1  -1.079432773849716E2  -5.548961326242579E1  -1.267699192726179E2  -2.042674263268118  -1.678775476876064E2  
 1.560003700000000E9    -2.426120621996869  -1.406762623301163E2  -6.930597627402715E1  -1.101048186092798E2  -6.140668720488876E1  -1.871064905978797E1  -1.723972837107744   9.067766775917043E1  
 1.590003675000000E9    -3.192182969737127   1.046981310799692E2  -5.801925863445172E1   1.388132096712727E2  -5.922280929037656E1   7.625931901253750E1  -1.635989307101561  -1.453367429502337E1  
 1.620003650000000E9    -2.603900230542591   1.769729300380212  -6.457373217975058E1  -3.556425592978686E1  -5.507735766245872E1   5.584102876217357E1  -2.293491701832016  -1.223086236302581E2  
 1.650003625000000E9    -2.028309631108863  -1.048152389130902E2  -6.551944666430396E1   1.272673406972625E2  -7.301943555144682E1   1.784653622269855E2  -1.662948478916016   1.370923213706195E2  
 1.680003600000000E9    -2.472862210218001   1.459927337765920E2  -6.505125221653009E1   1.512648552484366E2  -6.985718076484116E1  -8.897452608945953E1  -2.238816797816575   2.202772450939029E1  
 1.710003575000000E9    -1.628346705397509   3.895759654731405E1  -6.690880282164201E1   1.292366573439954E2  -6.465368524085861E1   1.333104637900616E2  -2.290954318672740  -9.533753731185973E1  
 1.740003550000000E9    -3.075312546534776  -7.730146364606655E1  -5.673445454410726E1   1.280786831666722E2  -5.307028641945001E1   1.323722838595649  -1.672574963192157   1.564316882746309E2  
 1.770003525000000E9    -2.744227542973950   1.682090175872101E2  -5.699001902512365E1  -1.205275280032394E2  -5.918044059029124E1   9.653504208405411E1  -2.227332984620098   4.829112682732340E1  
 1.800003500000000E9    -2.912583251711032   6.205089107910549E1  -5.889910299803474E1   1.773683704211829E2  -6.460988795075014E1  -1.731275375411510E2  -1.800055859186624  -5.484979516648590E1  
 1.830003475000000E9    -2.837130786268470  -4.885381258144314E1  -5.746202274142004E1  -1.079758436690034E2  -5.073011132249408E1  -1.425028319730296E2  -1.628579683790882  -1.596307812940366E2  
 1.860003450000000E9    -1.649185068201866  -1.514878110788615E2  -5.215086073923664E1   1.448094519679026E2  -5.942838185435659E1  -1.337459676690868E2  -2.476470142988117   8.893253363905117E1  
 1.890003425000000E9    -2.541615449494602   9.758959713308096E1  -5.486104517425903E1   3.776429618601772E1  -7.384496369351815E1   5.315287996088285  -1.763187216473404  -2.075216584817140E1  
 1.920003400000000E9    -2.015465836288145  -1.295019869651149E1  -6.342926875888107E1   3.820481575715027E1  -6.030616779269078E1   1.196484695041471E2  -2.289306414074439  -1.367551988683840E2  
 1.950003375000000E9    -3.066744536368377  -1.259226550327617E2  -4.839736057827783E1   3.677643429023637E1  -5.990230682768183E1  -1.756507284689724  -2.162739096189838   1.104543050240049E2  
 1.980003350000000E9    -3.141433729674316   1.160143903663265E2  -6.027710311798001E1   1.096807697127298E2  -5.852506680124432E1   2.388413059488818E1  -1.577596394652235   7.868679955332204  
 2.010003325000000E9    -2.504067364198533   1.618639699779861E1  -5.707464430958638E1  -1.184858474364564E2  -5.896825039922013E1   1.181672970552634E2  -2.375579602943798  -1.013641546346927E2  
 2.040003300000000E9    -3.078841734693611  -9.734283375016291E1  -5.819930259562311E1  -3.226517901188072E1  -6.633237570736930E1   1.035308469528730E2  -1.843680005139610   1.547809300230868E2  
 2.070003275000000E9    -1.673936926674374   1.567193879166268E2  -5.320816846707891E1  -8.929427599839558  -6.513802731607107E1  -4.052866142834544E1  -1.862926663104970   5.015942562317666E1  
 2.100003250000000E9    -2.313921508563389   5.196790985848221E1  -6.618968756401560E1   1.038324555935328E2  -5.654076150719239E1  -7.028233773960311E1  -2.646805778426480  -7.006439970720332E1  
 2.130003225000000E9    -2.559744737354683  -7.075159410115724E1  -6.911496026721551E1  -8.079832134612079E1  -6.200600757236035E1   5.472674683194457E1  -1.812745155270723  -1.799002231758414E2  
 2.160003200000000E9    -2.950779809236980  -1.756625798624198E2  -5.866957597245521E1  -6.813915437880691  -5.628041189605055E1  -3.791813022417478  -2.295402079259219   7.116880996689268E1  
 2.190003175000000E9    -3.946281728400017   6.657319920317829E1  -6.832077107321925E1  -2.333840519948196E1  -5.457716529227904E1  -1.630329230496443E2  -2.128361654499487  -4.133781116366099E1  
 2.220003150000000E9    -2.464374350819682  -3.717689075582590E1  -6.092134523296599E1   3.468773751345997E1  -5.423347613464118E1  -4.033058465264953E1  -1.622041114189042  -1.391522842804597E2  
 2.250003125000000E9    -3.034950688059672  -1.418464916842509E2  -5.759152413951153E1   1.564228462130794E2  -5.929620288723469E1  -1.319390221911021  -2.471521939513805   1.147487189030340E2  
 2.280003100000000E9    -2.161204316519465   1.028070779632163E2  -5.926626567664749E1   1.756253118195104E1  -5.892635266575844E1   6.255962959113415E1  -2.314190478436672   7.805057344008275E-1  
 2.310003075000000E9    -1.986045763150562   3.089245412527713  -5.644759348991153E1   9.808121973922908E1  -6.277643963166143E1   8.972123957908087E1  -2.049865586001166  -1.048123981597114E2  
 2.340003050000000E9    -3.695669166586978  -1.192113463943444E2  -6.055409740113228E1  -1.320161259373628E2  -6.315831280312319E1  -6.062903205557447E1  -2.696852778414050   1.356525621556939E2  
 2.370003025000000E9    -3.151185125920869   1.315229478953849E2  -7.175408926684101E1  -1.559114257756050E2  -5.451299457020795E1   1.438966426257325E2  -1.933641356625653   2.660086351092141E1  
 2.400003000000000E9    -4.096035450657438   2.678676668446163E1  -5.102605542044594E1   4.323794172141123E1  -6.062153910355951E1  -1.434799460260750E2  -2.226558757236065  -7.615122108446550E1  
 2.430002975000000E9    -3.052704081589383  -9.084684459995249E1  -5.769606780246316E1  -3.346720681856428E1  -5.831960908082015E1  -1.059429483341213E2  -2.579168712397425   1.719612320363773E2  
 2.460002950000000E9    -2.401819354134311   1.727394787145696E2  -6.362262011051572E1   1.422515429875568E2  -6.945021665743089E1  -2.081687771207290E1  -1.878303954205875   7.306622233784380E1  
 2.490002925000000E9    -2.666831417091522   5.586548843781154E1  -5.201736951194116E1   1.769119374482878E2  -5.228665275076005E1  -6.521719971813898  -2.647074940866743  -3.515386446222425E1  
 2.520002900000000E9    -2.364652978545040  -5.217554019234316E1  -5.938840633687344E1  -6.810615096803824E1  -5.323289312103023E1  -1.679380091240403E2  -2.662880133015673  -1.561114910862050E2  
 2.550002875000000E9    -3.888515621393825  -1.644734407756297E2  -5.428277306857565E1   1.728204138102582E2  -5.130607044953624E1  -3.765923654273680E1  -2.066936158665829   9.938982601360509E1  
 2.580002850000000E9    -3.901866814846085   7.659570133211349E1  -6.063166340123954E1  -1.038946149807231E2  -5.915093522733488E1   1.613761573616993E1  -2.888748299833294  -2.030676303371380E1  
 2.610002825000000E9    -3.591922244317310  -2.015257657679222E1  -5.249158380060631E1   1.125351114493886E2  -6.092367212216886E1   1.008033874515199E2  -2.202039183607361  -1.258655150959419E2  
 2.640002800000000E9    -3.784770344542560  -1.375538542890213E2  -5.567664133172767E1   4.410592507066735E1  -6.127096945249161E1  -2.815719747706736E1  -2.012398209202632   1.420951757085243E2  
 2.670002775000000E9    -2.351567256403834   1.205885815913330E2  -5.259624045436556E1   9.733455709510308E1  -5.469464294500205E1   1.740951243986689E2  -3.034643489463605   2.590302094654242E1  
 2.700002750000000E9    -2.490013255579688   1.611505636256799E1  -5.398833208313460E1  -1.348714270278645E2  -5.535406312419966E1   1.111966118159956E2  -2.201134314511530  -8.314796315613155E1  
 2.730002725000000E9    -3.696491386057064  -1.094318023371505E2  -5.076705512993962E1  -1.248267480588700E2  -6.039400003472008E1  -1.384289579823646E2  -2.547907242819385   1.695332963727600E2  
 2.760002700000000E9    -3.809422202938622   1.502222803453343E2  -5.351742173816314E1  -1.048887931065127E2  -6.099474775695949E1   8.111129293070914E1  -3.084814361518582   4.310840626786403E1  
 2.790002675000000E9    -5.375003783050516   3.090143435161927E1  -5.680980636933334E1  -4.653617449158803E1  -6.306862577007201E1   4.339391418743460E1  -1.866124409606561  -5.759753638941938E1  
 2.820002650000000E9    -3.731947404313519  -7.580078210415411E1  -5.732594074731206E1   5.999382487968842  -6.381998776360518E1  -1.253004234990703E2  -2.888439130104973  -1.618880465046019E2  
 2.850002625000000E9    -3.190994774629338  -1.761776854966239E2  -5.590134286305467E1  -6.516239213397668E1  -5.526744508063133E1   1.224636634881143E2  -2.969086277045935   8.692298643302156E1  
 2.880002600000000E9    -3.168540037224451   6.727251076844259E1  -6.512815874527354E1   3.905170513866427  -5.412594456118144E1   6.958886474305464E1  -1.945651078581626  -7.344678428541531  
 2.910002575000000E9    -2.314433375866075  -3.450352360418246E1  -5.228495703030701E1  -2.913481105269906E1  -5.622562971435140E1  -1.440715065754872E2  -3.840506924269819  -1.246367524621177E2  
 2.940002550000000E9    -5.292441725702899  -1.567255669992299E2  -5.771974069510083E1  -1.109850848685401E2  -5.581788239995615E1   8.744869465397553  -2.607528657690449   1.168899467963992E2  
 2.970002525000000E9    -4.469044239145979   9.038959240382026E1  -5.144214522296754E1  -3.534405874779689E1  -5.881252478131204E1   5.800802384897587E1  -2.424825718788596   1.565995952285159E1  
 3.000002500000000E9    -4.536849227374423  -5.608021547376076  -5.489486794743807E1   7.184363914416200E1  -6.121578352101776E1   1.126156629318164E2  -1.660776277502648  -1.021193687072349E2  
 3.030002475000000E9    -3.699874942389072  -1.201236487371131E2  -7.487987081831247E1   6.900968086894555E1  -5.409738069951476E1   6.883258591065005E1  -1.550542531706828   1.668851608001869E2  
 3.060002450000000E9    -2.350008777047993   1.448387656279948E2  -5.615668435711481E1   4.263109044645337E1  -6.158123259341615E1  -1.122603744369240E2  -2.569291900356649   6.214835935408591E1  
 3.090002425000000E9    -2.058043274984576   3.354492613527004E1  -5.461391928542884E1  -3.580892305940441E1  -5.823131388645036E1  -1.628418911529486E2  -2.499097227106612  -5.300878489250864E1  
 3.120002400000000E9    -3.075294162953156  -8.084177152835105E1  -6.152056584539632E1  -1.330653421048799E2  -5.804607138955973E1   1.275699585069872E2  -2.093051149274663  -1.537890662672871E2  
 3.150002375000000E9    -4.770355094877924   1.679081772169259E2  -7.672867342676175E1  -4.309424122237387E1  -5.563147013739158E1  -1.472971909385961E2  -2.509023257616183   7.947916804194418E1  
 3.180002350000000E9    -5.192159751161698   5.200068265101308E1  -5.911173668588253E1   2.541289075357934E1  -5.649970809538502E1   1.019058437565234E2  -1.511055608225971  -2.412457134264562E1  
 3.210002325000000E9    -4.240252184429678  -5.055272845759649E1  -6.042767390807467E1   1.144819353448197E2  -6.400520403032351E1  -1.292056439306882E2  -2.275311894202496  -1.324108526078751E2  
 3.240002300000000E9    -4.269307232321613  -1.632206574520314E2  -5.511018331213138E1  -5.133800665615541E1  -6.358664120436031E1  -2.656703589114042E1  -2.649258758079849   1.161632861887825E2  
 3.270002275000000E9    -2.612497400389403   9.887413982865937E1  -6.151846328625183E1  -1.597307288576867E2  -5.511054822958329E1   1.184828204934853E2  -2.343833605965664   2.194807533235576E1  
 3.300002250000000E9    -2.356922953454412  -1.251708538127710E1  -5.796082788894297E1  -9.365712710189845E1  -7.404775754159320E1   4.562790771600061E1  -2.697681183258883  -8.412888352617230E1  
 3.330002225000000E9    -4.663882439799229  -1.323339230894233E2  -7.732817365777567E1   3.601463947975883E1  -5.765012018581609E1   1.706102843313613E2  -2.545804618317025   1.541517013740366E2  
 3.360002200000000E9    -5.273829470408835   1.196684794908259E2  -6.478618478471319E1   1.016435804461358E2  -5.888583043507933E1  -1.439622854452560E2  -2.904118981003511   5.185427558030400E1  
 3.390002175000000E9    -6.344378841354454   4.579268586673591  -5.641935576963522E1   1.091657374117187E2  -6.194945020543513E1  -1.251071469241971E2  -3.072413074812678  -7.353591927149319E1  
 3.420002150000000E9    -5.217792769212645  -9.871863169520275E1  -5.854984123137677E1  -4.094568329775197E1  -6.278349288840863E1   5.985827004442867E1  -2.596865152821581  -1.761041145765829E2  
 3.450002125000000E9    -3.500782013952119   1.557165019657390E2  -6.517775610023355E1  -9.730809291447301E1  -5.938501654742576E1   1.506843929785566E2  -2.219369361508452   8.744143682790293E1  
 3.480002100000000E9    -3.367229463008585   5.173173284248200E1  -6.164479527637580E1   8.573813365969718  -5.681415825322202E1  -4.882556082021923E1  -3.005252650343439  -2.753977241246886E1  
 3.510002075000000E9    -3.072984485662568  -5.889193936948956E1  -5.954927153835070E1  -1.758479836296481E2  -6.081853649655540E1  -1.771065688339146E2  -2.698894378376589  -1.297516396591673E2  
 3.540002050000000E9    -5.825882146488123   1.789157226222918E2  -6.586280885724328E1   1.383557191260207E2  -5.783878459838561E1   1.553077948663826E2  -3.126562433679370   1.159401875908081E2  
 3.570002025000000E9    -5.655890877151443   7.337181716725711E1  -6.535980663467035E1  -4.645788164167260E1  -5.993823639732852E1  -9.307206887253393E1  -2.843659712470305  -7.538255716740595  
 3.600002000000000E9    -6.223519075651464  -3.555927329216875E1  -7.016576365571657E1   7.694102995842165E1  -7.096300370376885E1  -2.628206010017969E1  -2.555918042297793  -1.041794529720751E2  
 3.630001975000000E9    -5.646847601305463  -1.425775960370837E2  -6.886698814770840E1  -1.156224668075735E2  -6.096025241604198E1   1.563002372855848E2  -2.568654792640030   1.444944467268743E2  
 3.660001950000000E9    -3.398619585017028   1.162980603778682E2  -6.636430196246029E1   2.729516811657567E1  -8.270149491341812E1   8.003099520848721E1  -2.540831446504000   4.048842943146480E1  
 3.690001925000000E9    -3.036704975625741   6.050290282220909  -5.827165117251118E1   6.579496924778238  -5.954302692402793E1  -1.529541786028408E2  -2.662827193286331  -5.611512589662424E1  
 3.720001900000000E9    -4.122837978082094  -1.091003142638324E2  -5.909471692874120E1   1.558264568337993E2  -6.517787357485659E1   1.506921882891707E2  -2.701111654570707  -1.729829051479844E2  
 3.750001875000000E9    -6.720235518874551   1.325235277615836E2  -6.197527079454097E1  -5.092417932699821E1  -6.946869497488648E1  -3.809309316253179E1  -2.755633006066530   7.342485772562353E1  
 3.780001850000000E9    -6.173974520040113   2.833203354897303E1  -6.241232393377219E1  -1.309747532152166E2  -7.255056093079283E1  -6.381634908791837  -2.778430926901546  -3.833892543318572E1  
 3.810001825000000E9    -5.934897996754620  -7.578804682652967E1  -5.459592984109384E1  -1.697707442568183E2  -5.651883872734668E1  -1.860439520825615E1  -2.724962533112206  -1.565398305837073E2  
 3.840001800000000E9    -5.187086911463244   1.728998994204621E2  -5.931110688038104E1  -1.061356593110721E2  -6.000540893301844E1   2.149630793159144E1  -2.539901334756018   1.079201484164144E2  
 3.870001775000000E9    -3.259258780050231   7.474240505260612E1  -6.094082148968820E1   3.212704084342481E1  -5.862596215394480E1  -1.478586755734152E2  -3.556075133170745  -3.370051958593441  
 3.900001750000000E9    -3.781160639103578  -3.791008241700217E1  -5.763399118971205E1   1.418356502277732E2  -6.628886496464173E1   1.328544724988291E2  -2.820098043370862  -1.101845620925732E2  
 3.930001725000000E9    -4.836772919623388  -1.583993933662598E2  -7.171393820245807E1  -1.293610507657801E2  -6.560882685123866E1  -9.435792336330437E1  -3.190576997376477   1.515234854267734E2  
 3.960001700000000E9    -6.403464641714558   9.660663559253314E1  -5.341191053090183E1   1.200961708296947E2  -6.069674573852171E1  -6.118121199256094E1  -3.602432546692627   2.168819337751724E1  
 3.990001675000000E9    -7.358775453912684  -1.914323235969187E1  -5.501905335414077E1   1.706153321614609E2  -5.582066664142062E1   1.746602295881988E2  -2.607933949377429  -7.710279509421457E1  
 4.020001650000000E9    -5.530519951902555  -1.172832370206053E2  -5.965182972305957E1  -1.115339311804239E2  -6.618632910901093E1   1.218635241602742E2  -3.802580504677346   1.695607928722638E2  
 4.050001625000000E9    -5.525663714353231   1.340613575119574E2  -5.999705024953163E1  -1.693345678848466E2  -5.442084653986827E1   9.100914247063149E1  -3.844460170634298   5.056864411141207E1  
 4.080001600000000E9    -2.833557995161557   2.405725859944822E1  -6.839742894047740E1  -9.381387804656727E1  -6.027853610098722E1   4.476010844496044  -2.424383518854351  -3.499921533454967E1  
 4.110001575000000E9    -3.978004958485505  -7.778209842872491E1  -6.384350085647806E1   7.977584212536775E1  -5.970529972745238E1   1.091204802888105E2  -4.144353055069007  -1.413049226217237E2  
 4.140001550000000E9    -5.839394432037556   1.503369307028124E2  -5.042932452777298E1  -7.958540520932318  -5.618098045874486E1  -1.768044349283623E2  -3.613330028474227   9.970551305312138E1  
 4.170001525000000E9    -4.518930067099955   5.475513387248887E1  -5.600919799136780E1   6.548523023550462E1  -5.916440227443255E1   1.451018229183080E2  -3.127982466907137  -7.399910989502537E-1  
 4.200001500000000E9    -7.466054467888587  -4.707552051151317E1  -6.614410958881258E1  -1.394949069892089E2  -6.678234946603554E1   1.715972576052831E2  -4.715790319239008  -1.234386955026178E2  
 4.230001475000000E9    -4.561516219907833  -1.698346332493298E2  -6.052333290539828E1  -1.544249111178015E2  -5.978530076865523E1   1.052363059929584E1  -2.391830570787939   1.283619991100031E2  
 4.260001450000000E9    -3.212704648093574   1.019232280166559E2  -6.166063029866616E1   3.386351530072587  -5.272984463334591E1   9.662025007413263E1  -4.157242570680173   3.248957465656240E1  
 4.290001425000000E9    -3.813164074361202  -2.619562144872221E1  -6.583407675766671E1   9.710042872532128E1  -6.855401871667027E1  -7.176666839789412E1  -4.845213739347112  -8.671326708872311E1  
 4.320001400000000E9    -3.165643070650626  -1.364169242524877E2  -6.503474602956024E1  -2.064958755903307E1  -7.106225525870858E1   1.636824491908437E2  -2.342456173308252   1.796234727532889E2  
 4.350001375000000E9    -5.895753594200003   1.177016767191294E2  -6.256072130425694E1   9.759996290935955E1  -7.856511922158805E1   1.372921810278210E2  -4.083299906158293   8.026518459920452E1  
 4.380001350000000E9    -5.015683141587002  -4.546009547730430  -6.313256540327841E1   8.340590105088705E1  -6.815189495802642E1   2.883121673563509E1  -3.327988482530929  -4.975247476236039E1  
 4.410001325000000E9    -3.346497508032836  -9.173494029410004E1  -6.657572744318267E1   1.064810011369492E2  -6.295575897062439E1   1.342196061716960E2  -2.732095234314318  -1.513897660226232E2  
 4.440001300000000E9    -5.947204801797934   1.462622047222232E2  -5.729531472916223E1   1.678240137872175E2  -5.843314106466536E1  -9.536098394967142E1  -3.990606826765154   9.278620683461307E1  
 4.470001275000000E9    -2.157548565265790   4.105397780727238E1  -5.836082407295918E1   3.629338175461932E1  -5.583876222935823E1   1.439447168042369E2  -2.655315541983759  -2.417356894018898E1  
 4.500001250000000E9    -3.139084927054606  -6.467137125014513E1  -6.407478301309305E1  -1.612730927083747E2  -6.505667777798061E1   1.591755813306679E2  -1.694007529520916  -1.080499667187863E2  
 4.530001225000000E9    -4.900240751140639   1.575717570923760E2  -5.885315100350952E1  -2.088770628587231  -5.706338350872806E1  -5.580039057486863E1  -3.251376987455113   1.456390680767829E2  
 4.560001200000000E9    -3.368842361338384   6.945806898602056E1  -6.673776445387348E1  -1.523825925797262E2  -6.629816554577747E1   1.718038389330620E2  -2.549360625532613   2.187295734494708E1  
 4.590001175000000E9    -6.549814573780309  -4.304859318002009E1  -5.473730144499331E1  -2.220763219918284E1  -6.403598409677144E1   1.567760207548686E2  -1.975050568410715  -8.444322886547053E1  
 4.620001150000000E9    -4.335407258971031  -1.544359704038052E2  -6.034983914625970E1  -1.645635985891653E2  -6.458000854448329E1  -2.545493841930088  -3.658413375008469   1.452154518873680E2  
 4.650001125000000E9    -4.023318029677537   1.067446264202543E2  -5.516211453613700E1  -5.666496611058413E1  -6.714619815086942E1  -2.980354330854874E1  -2.327464738030634   4.156962278513272E1  
 4.680001100000000E9    -3.621258723608105  -2.033705480024533E1  -6.822321796787709E1  -4.772962246747650E1  -6.197235712202414E1   1.407868277110057E2  -2.603720175798258  -5.675888207809580E1  
 4.710001075000000E9    -2.368044209918591  -1.184147243708426E2  -6.290078796291847E1   1.529763734970888E2  -6.248408656505474E1  -1.724304269332732E2  -3.156683138706983  -1.668508603309845E2  
 4.740001050000000E9    -6.795757563780976   1.222563434606684E2  -5.932233335359886E1   1.556169532995185E2  -5.929774042953292E1  -1.777366511870769E2  -1.948947123259810   9.571765095804656E1  
 4.770001025000000E9    -4.308089419667077   1.367550037741999E1  -6.536942338802780E1  -1.759189721827129E2  -5.839049487539325E1  -8.381473656810323E1  -2.907408119338578  -1.706079368346482E1  
 4.800001000000000E9    -4.480210425162101  -7.857051575313309E1  -6.341296422943647E1  -1.404937251894511E2  -6.905856608549770E1  -1.371889077331856E2  -2.818185064256857  -1.414486038030487E2  
 4.830000975000000E9    -6.174718898211606   1.535671165694388E2  -7.064698294498643E1   7.450578214295659E1  -6.017231711913285E1  -1.045645807867535E2  -2.086386323400624   1.111066700139878E2  
 4.860000950000000E9    -2.509912724883987   5.502912939799761E1  -6.281559412762458E1   1.494780435302498E2  -6.373779704451901E1   1.606198773162205E2  -3.422009697662733  -5.805771404292655  
 4.890000925000000E9    -4.723295512466121  -5.907708648506545E1  -5.751975036289989E1   9.528293800938418E1  -6.053252930935930E1  -1.505197403168570  -2.663375595856121  -9.900438945492464E1  
 4.920000900000000E9    -3.556408959949106  -1.775213674952953E2  -6.171992840436755E1   1.267348352463383E2  -6.404324953488333E1  -1.208574418840933E2  -1.928421888968704   1.660960995282274E2  
 4.950000875000000E9    -4.915398383735802   8.657486385537355E1  -6.349338813690480E1   1.690136518135227E2  -6.142463431400706E1  -4.354177985409287E1  -4.187234985738764   5.311615366873303E1  
 4.980000850000000E9    -5.981843641596973  -3.564051603186992E1  -6.456576649490754E1  -1.132448027204397E2  -5.945334076262220E1  -1.679961782868898E2  -2.296269258328853  -6.450855843249815E1  
 5.010000825000000E9    -4.007764050068551  -1.341801659956842E2  -6.785736655027569E1  -3.710247775406728E1  -6.125203370499221E1   1.515906431892913E2  -2.715246873274482   1.795318544034875E2  
 5.040000800000000E9    -6.215827552170040   1.187799554799880E2  -6.057849021396587E1   1.212404664798332E2  -6.120350064562494E1   5.295501286036802E1  -3.365947351250008   5.925971200611525E1  
 5.070000775000000E9    -2.893239013113014   4.525304046187062  -6.626405148718740E1  -1.033131406776765E1  -6.106061962709272E1  -6.647657499584386E1  -2.117958314018480  -3.823721698420405E1  
 5.100000750000000E9    -3.840895943996671  -9.999753415604768E1  -6.277606097573306E1  -1.022287665074462E2  -6.594758024378560E1  -3.242285098325738E1  -3.220006312776135  -1.404405678710347E2  
 5.130000725000000E9    -6.644289863493320   1.424722192434325E2  -6.403923370583263E1  -9.384486077284856E1  -6.417179623354330E1   3.225831456112014E1  -3.571374647728562   1.243029414208718E2  
 5.160000700000000E9    -3.670550884129635   3.942275463773324E1  -6.681903096439903E1  -1.796369374600132E2  -7.026778165374670E1  -1.947673520936101E1  -2.772494117287353   1.223228737949964E1  
 5.190000675000000E9    -6.594626432925776  -7.475447252050000E1  -7.682979365540940E1   8.081968890776946E1  -6.760308235655793E1  -4.102700268020917E-1  -4.187102478174628  -1.111406617111701E2  
 5.220000650000000E9    -5.530520145825700   1.704745623394047E2  -6.904495371244762E1   2.617664418362732E1  -6.567796834450358E1   2.216443599742905E1  -2.652343687301023   1.398234765657884E2  
 5.250000625000000E9    -4.352558462129493   7.196610870985836E1  -6.416737912325728E1  -9.175868314220622E1  -8.513571309835582E1   1.207671119766187E2  -3.442483388206129   2.140190908145874E1  
 5.280000600000000E9    -4.592671820175735  -4.422652119278128E1  -6.855583217940044E1  -1.427784036627761E2  -6.668163569787392E1  -1.403015297465607E2  -3.317622341645805  -8.578142974589196E1  
 5.310000575000000E9    -3.597237571218380  -1.474268699851580E2  -6.959275053524448E1   9.772775926944922  -6.265504294199480E1   9.291482253484629  -2.045117324898089  -1.756481607961714E2  
 5.340000550000000E9    -7.255078866899376   1.049221273220358E2  -6.672789230552252E1   1.204966999640405E1  -6.673090387115981E1  -7.687391121013272E1  -3.154725863018036   8.452338298915923E1  
 5.370000525000000E9    -4.415849603054094  -1.433654780544930E1  -6.745393656516609E1   1.270269483875798E2  -6.898150177670750E1   7.330579681142410E1  -4.458604938088209  -3.215574575172026E1  
 5.400000500000000E9    -5.752260883793600  -1.162596094865102E2  -6.681472901973976E1  -7.796368891344561E1  -6.807132116919497E1   1.498721359140287E2  -2.702527066833055  -1.493939904307090E2  
 5.430000475000000E9    -6.476441022150554   1.271487302179964E2  -6.864340782018319E1  -9.862602539626937E1  -6.037468717132239E1   1.186764130674544E2  -4.125675204364158   9.441615005073929E1  
 5.460000450000000E9    -2.532334604940330   2.738800188845446E1  -7.088546659435851E1  -8.755994774096901E1  -6.982545089474517E1   1.585991821011679E2  -2.840253296398902  -1.740493625146464E1  
 5.490000425000000E9    -4.972490506686931  -7.833691969362191E1  -6.880286470416304E1   9.525315088203058E1  -6.897720377889795E1  -2.838202077236160E1  -2.942436159152125  -1.213916665983028E2  
 5.520000400000000E9    -4.726870042442728   1.667478835291358E2  -6.342355497585899E1  -1.202393215192108E2  -8.008332622719738E1   6.272108656432221E1  -3.072757252549001   1.430602684164232E2  
 5.550000375000000E9    -5.080046696991358   6.075255597281976E1  -6.734206588339590E1   7.760379742062408E1  -6.378384076391684E1   1.633235307363141E2  -2.898371786690530   4.398335874647874E1  
 5.580000350000000E9    -5.346184295047842  -6.043657981695463E1  -6.851276638043441E1  -1.016373808798018E2  -6.325025746868736E1  -6.390580210393313E1  -3.613585690519330  -7.553339468597902E1  
 5.610000325000000E9    -4.394248399269486  -1.642046585056034E2  -6.170507957736874E1   3.320815039436306  -6.701068958733777E1  -1.378140947561572E1  -3.442636727797012   1.646675882775937E2  
 5.640000300000000E9    -6.221746795411823   8.721865359460531E1  -6.413677032944543E1  -3.016404396161523  -8.896859063250906E1   1.077682865890758E2  -2.986243671228249   5.505032858822435E1  
 5.670000275000000E9    -2.544216305708249  -2.544014521163057E1  -6.058781373922891E1   1.596592717670959E2  -6.584544834008840E1   3.589652492088066E1  -3.513822594999570  -6.358478505318724E1  
 5.700000250000000E9    -4.139331497767978  -1.238636886900260E2  -6.595456888062759E1  -2.310846684706978E1  -6.704152169918622E1  -1.225419483118892E2  -2.568802664820304  -1.607612622052690E2  
 5.730000225000000E9    -5.434521067185569   1.178749503205367E2  -6.218373397026367E1   1.094272399283738E2  -8.103871969080716E1   1.269332120604834E2  -2.660561857534559   1.047094021097469E2  
 5.760000200000000E9    -3.660580979944052   8.310562381468120  -6.902819901407780E1  -2.155589773566506E1  -6.192386017234249E1   5.128762746363292E1  -4.034738731045558  -2.796306458746950  
 5.790000175000000E9    -5.631880012178530  -1.077085562867973E2  -5.889685398125692E1   9.564458235989218E1  -6.126706582286768E1  -2.128291661842804E1  -2.866215378360979  -1.221900827867688E2  
 5.820000150000000E9    -3.942292797963499   1.423928878910090E2  -7.384102770640429E1  -3.846254305844304  -6.118723532530763E1   1.274345958448939E2  -3.277515974081043   1.268726083860267E2  
 5.850000125000000E9    -3.811450617484417   4.367261442961025E1  -6.160343647607743E1  -1.350710977899953E2  -5.959805601283575E1  -4.305954595459783E1  -3.840997188493668   1.127836843749689E1  
 5.880000100000000E9    -3.469354941087910  -7.055864275807237E1  -6.199403672994669E1   8.164116764906069E1  -5.815954312438976E1   1.010556470241499E1  -3.087939263822703  -1.002898666024346E2  
 5.910000075000000E9    -3.238104656780284  -1.697154243308654E2  -5.878768997371464E1   2.528395173679540E1  -6.760318539364658E1   1.406567564195730E2  -3.119831300250763   1.605037651387245E2  
 5.940000050000000E9    -5.938177007028862   7.451505021332372E1  -6.820920223506128E1   9.368663191723330E1  -6.429096845434977E1  -3.751141977614362E1  -3.039107687629257   6.180686121995480E1  
 5.970000025000000E9    -3.575104284784981  -4.558060068736232E1  -8.199395026850233E1   6.805938236868509E1  -6.129098869606828E1   2.514837249444416  -3.255729768222269  -4.659069426683681E1  
 6.000000000000000E9    -5.203145855720996  -1.472050783193919E2  -6.185622101521955E1  -1.596105245694832E2  -5.586574178398553E1   5.351796410449676E1  -3.696080662961871  -1.648524802697774E2  
