#  HZ   S   DB   R     50.0 
! Rohde & Schwarz ZVL13 2Ports - Version 3.20 - 1303.6509k13 SN: 100953
! Date: 2024-10-21 06:10:38
! Data & Calibration Information:
! Trc1:S11(Cal Off) Trc4:S21(Cal Off) Trc2:S12(Cal Off) Trc3:S22(Cal Off)
! 
! 
! 
 5.000000000000000E3    -3.163943498844051E1  -1.257623044999997E2  -5.669840300107516E1  -1.470574071491173E2  -7.438406187258565E1   6.739199571278568  -6.632522229784600E-2  -2.748066756922423E-1  
 3.000497500000000E7    -3.862826431927724E1  -4.240980162662081E1  -6.064308220925240E1  -9.133842960379339E1  -6.065694617966913E1  -1.290969410859632E2  -1.734827400825341E-1  -1.109839495480836E2  
 6.000495000000000E7    -4.074211631698665E1   3.538114094081207E1  -6.778898830231576E1   1.319685416041160E2  -6.304506273270214E1   8.905627659171163  -5.142958784022986E-1   1.382054304617935E2  
 9.000492500000000E7    -3.444869310391820E1   1.110643848608600  -6.925102551079900E1   1.127166728254247E2  -6.596993734097404E1   1.389349221435255E2  -5.263085567512279E-1   2.856451562406485E1  
 1.200049000000000E8    -3.074722180792170E1  -5.861681922594902E1  -6.120946704854905E1   1.461192589444958E2  -6.401206437211445E1   1.099398436908124E1  -5.593174094706253E-1  -7.741459260200591E1  
 1.500048750000000E8    -3.172999246570475E1  -1.687411387788330E2  -5.852782780237175E1  -7.497138072215009E1  -6.732197746186611E1  -6.769829668427225E1  -5.886390038413036E-1   1.742130600659224E2  
 1.800048500000000E8    -3.037992849305249E1   9.790150865155832E1  -6.279893062084685E1   1.276473389387610E2  -6.213191216846883E1  -1.664259921521493E2  -6.727547755973485E-1   6.565214817628693E1  
 2.100048250000000E8    -3.806789875375012E1   3.667445162618324E1  -5.571851556312400E1  -2.054959028395183E1  -6.101115641514924E1   1.454776749136499E2  -6.255586088392039E-1  -4.330104144247691E1  
 2.400048000000000E8    -3.426916067301777E1  -1.275154699247554E2  -6.129830038251956E1  -2.829101940007580E1  -6.637105289617864E1   1.093262492731679E2  -7.289218506506966E-1  -1.561989018976609E2  
 2.700047750000000E8    -4.698219874678935E1  -7.870447506644703E1  -5.927954444014984E1   1.617906104982762E2  -6.273754220937465E1   4.590540161827119E1  -8.588854233052217E-1   9.363909166840435E1  
 3.000047500000000E8    -2.959548432243636E1  -5.528071106868739E1  -6.637002737585600E1   1.081234792636277E2  -7.534909983804812E1   1.589476772120101E2  -9.335469301411766E-1  -1.670217374259947E1  
 3.300047250000000E8    -3.087685071404503E1  -1.049471203074570E2  -6.514059196938223E1  -9.617711196750273E1  -5.745262414133671E1   1.568691242937038E2  -8.751441809814164E-1  -1.245679976785334E2  
 3.600047000000000E8    -3.982253287354788E1   1.159290798405424E2  -5.730767826304391E1   1.061531507861678E2  -6.562019458541043E1   1.439811560160883E2  -9.420016516564922E-1   1.323200806690178E2  
 3.900046750000000E8    -2.768606696738527E1   3.599059094852261E1  -6.138341646056139E1   6.135102858219298  -6.713648873580571E1  -4.116343967670650  -9.633959081683354E-1   2.213568972416744E1  
 4.200046500000000E8    -2.911856090808811E1   1.511075719089610E1  -5.813109130897563E1  -1.374592038976277E2  -7.321402811662308E1  -6.085538675407210E1  -9.243780449264095E-1  -8.716434380770063E1  
 4.500046250000000E8    -4.301994933633240E1   4.068711321343358E1  -6.498037279144006E1  -2.891034369302887  -6.244380054558319E1  -3.130301965105478E1  -1.204680598163540   1.628118610763905E2  
 4.800046000000000E8    -3.820745451862822E1   1.560248052184311E2  -5.845686458691919E1  -1.254647506601000E2  -6.063356686044349E1  -1.772520059695991E2  -1.471107371499342   4.740071462970585E1  
 5.100045750000000E8    -2.950454268926018E1  -1.271509133064696E2  -7.887691263661750E1   2.913787969714213E1  -6.218285986166378E1  -1.361437304168050E2  -1.207417414973506  -5.872691317466671E1  
 5.400045500000000E8    -2.598015146383926E1  -1.687343141393819E2  -6.018077045255109E1  -5.706103118006218E1  -7.617569739920521E1  -1.797048201934788E2  -1.248105765759350  -1.654132145106136E2  
 5.700045250000000E8    -3.095514051760389E1   1.274034029311149E2  -5.846817343047094E1   1.613834635382157E2  -5.824853774521282E1  -1.052240857343582E2  -1.101373739642362   8.633071434361955E1  
 6.000045000000000E8    -2.930390683768436E1   4.468677166606767  -6.693582311730371E1   5.401927189514478E1  -6.791200002727977E1  -9.894210929882556E1  -1.093935351985848  -1.600166631265012E1  
 6.300044750000000E8    -2.386957496033755E1  -3.993609791252379E1  -6.522595361035097E1  -3.088580429689901E1  -6.775331619807150E1   9.462832064210539E1  -1.209011974539156  -1.285950090380883E2  
 6.600044500000000E8    -2.976358901807054E1  -5.149339101398088E1  -5.872417375243995E1  -1.308378127192973E2  -7.257252303828035E1   1.476391103061820E2  -1.426211746448896   1.205616323104507E2  
 6.900044250000000E8    -3.401796360068916E1  -8.202574704771931E1  -5.771071326765388E1  -1.720670971285587E2  -5.907359069285409E1   1.175669826545378E2  -1.524212073629615   8.649325717826633  
 7.200044000000000E8    -3.471821227039403E1   1.731630794529969E2  -5.492010507105837E1  -1.333350023259862E2  -6.424549477733557E1  -1.796739836836002E2  -1.516783406187662  -1.044808858596840E2  
 7.500043750000000E8    -2.511834788926817E1   1.370207072461865E2  -5.685750685407036E1  -3.345484558297413E1  -6.912462779176872E1  -9.370062266290790E-1  -1.303272728688896   1.543590380526405E2  
 7.800043500000000E8    -2.619213411602210E1   1.041592373939520E2  -6.744123845202819E1  -1.618430417639239E2  -6.147397030808903E1   9.791803768084664E1  -1.325187055376084   4.890778576019259E1  
 8.100043250000000E8    -3.706950506610777E1   4.090524870161566E1  -5.655143000091073E1   1.615017565993884E2  -6.221019681237843E1  -1.188120292691720E2  -1.329968561703120  -6.051353106916224E1  
 8.400043000000000E8    -2.731558674305872E1  -9.228035936128234E1  -6.177725372338762E1   5.547109204231389E1  -6.087007827899168E1  -1.697063801418506E2  -1.420162942118870  -1.654926031011058E2  
 8.700042750000000E8    -2.662436510645680E1  -1.043662789972178E2  -6.070244778983929E1   9.632629458410140E1  -5.348947049161855E1   4.720448950742905E1  -1.614467923695753   7.573925883627308E1  
 9.000042500000000E8    -2.694914024204996E1  -1.205136833475235E2  -5.720016655089700E1  -6.863868560950444E1  -6.607066983951803E1  -2.340406444838621E1  -1.655754198029578  -3.710969707473801E1  
 9.300042250000000E8    -2.831565246072664E1   1.653930179910105E2  -6.923739913334180E1  -1.731646121432329E2  -5.891294730704871E1   8.821641427285429E1  -1.501450285206219  -1.442787331895282E2  
 9.600042000000000E8    -2.588761716696890E1   9.233008084078988E1  -6.052802818113361E1   1.226819379089429E2  -6.517670198508000E1  -1.642063397791281E2  -1.279125969903665   1.071440181004805E2  
 9.900041750000000E8    -2.450648210701499E1   3.897881634757866E1  -5.327293504042551E1  -1.202851271709038E2  -5.464952613467222E1  -7.571457659240005E1  -1.525863495370825   6.532632643991169  
 1.020004150000000E9    -2.710370431822120E1  -1.457650266898176E1  -7.564761528699955E1  -1.219817451418360E2  -6.633737209844432E1   1.636031456010578E2  -1.347509298226789  -9.900164094906468E1  
 1.050004125000000E9    -3.324520900807706E1  -1.085775615271679E2  -5.842683862076358E1   1.482633103762986E2  -5.929924288455089E1  -1.460278681185769E2  -1.642674911695432   1.480415198431266E2  
 1.080004100000000E9    -2.861820572572677E1  -1.487093127186625E2  -7.175641605064830E1   1.144000064221266E2  -5.499563764271057E1   1.371579405935665E2  -1.867180830636011   3.663261681110906E1  
 1.110004075000000E9    -2.583281490524713E1  -1.783165101835384E2  -7.175813113046324E1   1.016538984867698E2  -6.670504263552611E1   6.540773571880115E1  -1.643607060860437  -8.068198278927385E1  
 1.140004050000000E9    -2.486993823722016E1   1.478635041602189E2  -6.775037639067821E1  -1.463667689294222E2  -5.779347828216557E1  -1.518266157922783E2  -1.574296504455082   1.700296441184657E2  
 1.170004025000000E9    -2.757562932990476E1   7.776853084996391E1  -6.156988450638134E1  -2.475129377922420E1  -6.719950495871177E1   7.195413974316540E1  -1.479961132137670   7.061764892112726E1  
 1.200004000000000E9    -2.424905473474788E1   3.409645764650224  -5.427571789939458E1   1.307838968283129E2  -6.076229075192090E1   9.736632614363066E1  -1.280182542749982  -3.795905085036016E1  
 1.230003975000000E9    -2.816017915833774E1  -5.001926896662292E1  -6.171751449733718E1  -8.410061954279800E1  -6.759583127430796E1   5.319272479241725E1  -1.639660489674494  -1.419625648569373E2  
 1.260003950000000E9    -2.999635207222189E1  -1.046496246665024E2  -5.691567313008650E1  -4.120094393352001E1  -6.203113365080748E1  -1.064033723588694E2  -1.678877260470674   1.086800327543852E2  
 1.290003925000000E9    -3.366495535598702E1  -1.475824757941503E2  -6.573292872005720E1  -1.579295454490783E2  -6.016645240502545E1  -1.748907990645797E2  -2.106555334931257  -1.351606309845811E1  
 1.320003900000000E9    -2.690641189963126E1   1.543321481048038E2  -6.368859298072797E1  -1.206061008200665E2  -5.166223628207950E1   1.476534118989320E2  -1.775160020338315  -1.216576220729606E2  
 1.350003875000000E9    -2.488680916407740E1   1.030845721391634E2  -6.775501195486493E1   1.428553285865190E2  -5.524603155658893E1   4.487535268527973  -1.443453911320195   1.303584202512569E2  
 1.380003850000000E9    -2.394979338271440E1   4.710005749689320E1  -6.124847226619850E1  -1.052770178567865E2  -6.649574776072184E1  -1.570404339549967E2  -1.935951632363431   2.486489254266826E1  
 1.410003825000000E9    -2.672058477862013E1  -8.534467210865873E-1  -5.477302127941415E1  -5.014383426301168  -6.011440430220334E1  -1.288888047398705E1  -1.554941964417990  -7.459696238921482E1  
 1.440003800000000E9    -2.992606782052702E1  -7.766151808467176E1  -5.905091571764196E1   1.626468940129922E2  -6.402125419051205E1  -1.584367303219330E1  -1.713204583561689   1.748864653179775E2  
 1.470003775000000E9    -2.705771700571870E1  -1.582159443323363E2  -7.170902638961016E1   1.436399600549827E2  -7.283920221034694E1  -6.820034699993022E1  -2.217087647536089   6.476027020533049E1  
 1.500003750000000E9    -2.478115159896822E1   1.713651085830732E2  -6.162545057536580E1   5.856800294813003E1  -5.839452622865556E1  -1.576896823984240E2  -1.691366220511058  -5.057314593953343E1  
 1.530003725000000E9    -2.446906482776869E1   1.433062797034673E2  -5.568389626647543E1  -4.107907073999235E1  -5.847034816626005E1  -1.730040527505608E2  -2.301918796775939  -1.678185314161058E2  
 1.560003700000000E9    -2.642807262020697E1   8.618338371635591E1  -5.894663177118411E1  -1.083082276758942E2  -5.710428661649992E1   9.108827784522505  -1.746373933412859   9.079073035244620E1  
 1.590003675000000E9    -2.585305490714827E1  -1.922116746753513  -5.999754169691429E1   1.099847091247149E2  -6.386319945476311E1  -1.139996433199587E2  -1.701657219786402  -1.473722118196905E1  
 1.620003650000000E9    -2.443528576132361E1  -4.569927149818945E1  -5.660739304403320E1  -1.685457108607664E2  -6.036214571683323E1   7.546392097200950E1  -2.081333465699004  -1.213147890314893E2  
 1.650003625000000E9    -2.786261475864229E1  -8.136097938456685E1  -5.703970034477858E1  -9.596426480762435E1  -5.489411042076725E1  -1.125545706926764E2  -1.716668578475591   1.366288208490399E2  
 1.680003600000000E9    -3.514863901326867E1   1.591038404071328E2  -5.449712685173878E1   1.608373305577397E2  -6.038136141797066E1  -7.447614857825893E1  -2.297426533559548   2.017951961047709E1  
 1.710003575000000E9    -2.569017564681278E1   1.030598866731787E2  -6.582173126588337E1  -1.455524143740388E2  -5.368623908168854E1   2.916056552252060E1  -2.256801261084090  -9.539110308989923E1  
 1.740003550000000E9    -2.196601275942729E1   9.407190385115959E1  -5.944024087744477E1   1.169344500590932E2  -5.791773718023119E1   1.189311017874165E2  -1.607123203864897   1.568514935174819E2  
 1.770003525000000E9    -2.424653316448473E1   7.932902862927536E1  -5.172675905919000E1   1.190846568821090E2  -5.666020805479580E1  -5.090892899105287E1  -2.307583203883486   4.683156039259157E1  
 1.800003500000000E9    -4.134911951378465E1   1.138894457982155E1  -6.422860275362434E1  -8.300077093699470E1  -5.706936191545853E1  -7.572463132315403  -1.788011070367553  -5.566663709516629E1  
 1.830003475000000E9    -2.437087672889037E1  -1.147912208530721E2  -6.547487175493856E1  -3.600077957227653E1  -6.318000613848998E1   7.586307281240194E1  -1.738172277023606  -1.586498256698494E2  
 1.860003450000000E9    -2.219254902240709E1  -1.328429576295426E2  -6.237457708137832E1   1.701112516600386E2  -6.411311256274091E1  -4.430442140331776E1  -2.382241581580882   8.924672002150184E1  
 1.890003425000000E9    -2.876462768373207E1  -1.392766059551985E2  -6.327170689169579E1   2.052115811048212E1  -5.510333977314208E1   7.484456360695640E1  -1.753069939304266  -2.077937558559401E1  
 1.920003400000000E9    -3.365809401509640E1   4.719211649460918E1  -5.178267117609973E1  -1.181091062591489E2  -6.718790928020873E1   1.111965518559013E2  -2.155949681940739  -1.375838658219371E2  
 1.950003375000000E9    -2.215511481123100E1   3.305620914567662E1  -6.039301146561736E1  -5.134746227961381E1  -5.147950810709315E1   1.257495912409636E2  -2.102338251066628   1.099314600451684E2  
 1.980003350000000E9    -2.095551096772004E1   1.979299573477223E1  -6.080541309045961E1  -1.375652386814463E2  -6.570528186065948E1  -1.300024941940359E2  -1.638658019364869   7.717555543235020  
 2.010003325000000E9    -2.700044076603078E1   2.533649812536451E1  -5.679635754698683E1  -1.426107185462260E2  -6.500079384336429E1  -8.078224956509625E1  -2.399366764496021  -1.007981687328849E2  
 2.040003300000000E9    -2.836443746333759E1   1.281692765163543E2  -5.655752165696947E1   8.292032096016150  -6.541112078556874E1   1.070519153930819E2  -1.843086232998380   1.548232466215197E2  
 2.070003275000000E9    -2.216106883353876E1   1.526703303032974E2  -5.676493448112554E1  -3.526922063562238E1  -6.101628720712596E1  -4.190529174482480  -1.926026197360997   5.055736849860411E1  
 2.100003250000000E9    -2.130467256066166E1   1.570790623667902E2  -5.371799147058071E1   3.653497415316237E1  -6.550649022957093E1   8.586141437496283E1  -2.616360845299030  -7.005077620146098E1  
 2.130003225000000E9    -2.488053605676831E1   1.577524158863836E2  -6.010669038667927E1   8.334543046308065E1  -6.031597250516420E1   8.173029135643459E1  -1.915193282793150  -1.799901951695447E2  
 2.160003200000000E9    -3.105567443326812E1  -4.854600327315206E1  -5.505824857243341E1   7.172623735751952E1  -5.272217262619755E1   9.831911419632773E1  -2.349554671589215   7.049037278139383E1  
 2.190003175000000E9    -2.135192558225477E1  -5.394834750543705E1  -5.717178074649423E1  -7.011768798564255  -8.841565594990838E1  -6.821026546110667E1  -2.287221367371021  -4.105150822973261E1  
 2.220003150000000E9    -2.115509356036473E1  -6.539386528969689E1  -5.722437772350293E1  -2.724628375165488E1  -6.326619997421261E1   1.653543896266991  -1.684807203888377  -1.390091342391434E2  
 2.250003125000000E9    -3.234676924759668E1  -3.508060001009302E1  -6.352849988234147E1  -1.124385251282636E1  -6.092120317905706E1   4.110484011296180E1  -2.615650666747688   1.156362454890820E2  
 2.280003100000000E9    -2.375605259871620E1   6.337307379619658E1  -6.233979367490005E1  -1.362007619818631E2  -5.778721801331245E1   1.747907047515041E2  -2.136566439517831   1.322657334230193  
 2.310003075000000E9    -1.984148929333895E1   6.999612171437681E1  -6.282372840885203E1   6.498583264458098E1  -6.742578869156250E1   1.587544304399926E1  -2.141593156324855  -1.042115542026337E2  
 2.340003050000000E9    -2.055281093861980E1   7.942243606363999E1  -5.615888538762454E1  -9.506389057883364E1  -5.927861205105909E1  -1.597252531240061E2  -2.672026689910625   1.356103604964890E2  
 2.370003025000000E9    -2.709503210250112E1   8.784225225502679E1  -6.900840923379708E1   1.484871917685433E2  -5.894081632295962E1   2.547113609784827E1  -1.898085766829414   2.696916431514159E1  
 2.400003000000000E9    -2.685722694279034E1  -1.565515635525097E2  -5.754280799024503E1  -9.809883102161038E1  -8.366671435248922E1  -1.227383480153746E2  -2.390912450817998  -7.579685920404943E1  
 2.430002975000000E9    -2.084631253265077E1  -1.504800755856633E2  -6.202484955243941E1   5.399921049597435E1  -5.241585944428141E1   1.107631083637925E1  -2.533948622431929   1.720915885464502E2  
 2.460002950000000E9    -2.271978159707953E1  -1.527277577127493E2  -6.821482278955219E1  -1.419582095148411E2  -5.226247304521017E1  -6.904071005054023  -1.838076386737465   7.383465435427485E1  
 2.490002925000000E9    -3.252554871228096E1  -1.108796265363307E2  -5.191845696949904E1   1.292688575756461E2  -5.698437532669766E1   2.871677357137781E1  -2.520952138097544  -3.470296164279596E1  
 2.520002900000000E9    -2.710031675515167E1  -1.141196992201100E1  -5.787018272704515E1  -7.451639979578742E1  -6.018194429684415E1  -6.365960773890887E1  -2.688566329642825  -1.563591708211846E2  
 2.550002875000000E9    -2.111253397487195E1  -5.000069763101076  -6.138390724765907E1  -7.475228536877803  -6.065300550796577E1  -2.923675057690031E1  -2.028950574130163   9.866686529270703E1  
 2.580002850000000E9    -2.116096107339075E1  -7.183813520762655  -5.961658611487449E1  -2.875229120769783E1  -5.528433145957482E1   4.585917706989378E1  -2.818536819387331  -1.948811958108985E1  
 2.610002825000000E9    -2.928547102110646E1  -3.393256557609698  -5.928513534328198E1  -3.694632580352874E1  -5.920487105613442E1   1.376285494967472E2  -2.239914762711377  -1.256511939256213E2  
 2.640002800000000E9    -2.426041908299338E1   1.305174801141212E2  -6.483130215020087E1  -1.987624149185556E1  -6.348995732198470E1   1.713221158809654E2  -1.998099720591966   1.423176209061068E2  
 2.670002775000000E9    -1.945000203145578E1   1.215542837439401E2  -5.591191613721507E1  -5.715227048648014E1  -7.645994599292959E1   1.092238109527958E2  -3.089867848085949   2.698661994398976E1  
 2.700002750000000E9    -2.067982502688458E1   1.107606283585253E2  -5.459921425084871E1   1.309853327833912E2  -5.414061340088040E1   9.896730301761377E1  -2.205988728217520  -8.290947919531460E1  
 2.730002725000000E9    -2.748108479039092E1   1.022012649561827E2  -6.333982304844479E1  -1.058339860248739E1  -6.353439851741947E1   5.980866382234926E-1  -2.582638757441819   1.698153651551374E2  
 2.760002700000000E9    -2.870402054734464E1  -9.995964484757384E1  -5.779363094444773E1   1.408792950990344E2  -6.097355169990900E1  -5.655613084864476E1  -3.305015921422223   4.348484468222865E1  
 2.790002675000000E9    -1.994025617431496E1  -1.190879627911077E2  -5.026226114260307E1   1.254514719439383E1  -6.129951084796981E1   8.149030459467605E1  -1.837453624578590  -5.839934138487747E1  
 2.820002650000000E9    -2.051131248373149E1  -1.276388360488942E2  -4.969332628937752E1   4.713605777815537E1  -5.919744469165757E1  -3.431369032643472E1  -2.988634521224536  -1.621701415605752E2  
 2.850002625000000E9    -2.653886715538686E1  -1.379467758006229E2  -5.567143236612829E1  -1.155085637621699E2  -5.627943901881984E1   1.065820209139587E2  -2.982398121036668   8.812256334266320E1  
 2.880002600000000E9    -2.985891484281751E1   3.243058693229592E1  -7.667249505375155E1   1.520052502689639E2  -5.232537269937232E1   3.640381401262365E1  -1.928885176440728  -6.896056448938029  
 2.910002575000000E9    -2.060535568275553E1   2.119985482595973E1  -6.087534358761016E1  -1.558791050716599E2  -4.879099565431167E1  -1.208596622565654E2  -3.911379252072610  -1.245307404184501E2  
 2.940002550000000E9    -1.832653593575892E1   2.106094691529554E1  -5.653870946690711E1  -7.484681911521169E1  -5.372066273451232E1  -1.650980505515950E2  -2.637111281738639   1.172295220356833E2  
 2.970002525000000E9    -2.267400410131503E1   1.801860636122142E1  -5.277272734022862E1   1.686878318541621E1  -6.387705173259531E1  -8.163371297248206E1  -2.436827351712232   1.534427326383005E1  
 3.000002500000000E9    -2.983026638335723E1  -1.707993907224824E2  -5.274931730226598E1  -1.487280786737252E2  -5.167263442270169E1   6.926538953093588E1  -1.661339862450665  -9.854961309868396E1  
 3.030002475000000E9    -1.915020558236004E1   1.743119279668380E2  -5.625578717503477E1  -1.493299844370292E2  -5.427439159689844E1   1.682340405988131E2  -1.785334246419075   1.668016553079370E2  
 3.060002450000000E9    -2.190543845638545E1   1.464387365647338E2  -6.395877660233114E1  -1.109910873294876E2  -6.575765411436737E1   1.195373893467262E2  -1.847480339585476   6.316762203894398E1  
 3.090002425000000E9    -2.428223350970462E1   1.061168849838182E2  -5.634238315522237E1  -2.005947289309395E1  -6.283791797476634E1  -2.061093420785692E1  -1.976816114255205  -5.039354348233145E1  
 3.120002400000000E9    -2.521284025078770E1   1.893275262331300E1  -5.689974364393955E1  -1.475115517436819E2  -6.421131100393986E1  -1.213375147681466E2  -2.394011121533538  -1.506489587286166E2  
 3.150002375000000E9    -1.887141028664063E1  -2.844201413775988E1  -5.854621540914716E1   3.495416828812098E1  -5.573702205066844E1   1.303799903521131E2  -2.554787718367432   7.918326614707176E1  
 3.180002350000000E9    -2.224900558942236E1  -4.681027183116539E1  -6.005306487951149E1   4.515424659509645E1  -6.204980271286360E1  -1.720620408072657E2  -1.917847497301775  -2.987245220707643E1  
 3.210002325000000E9    -2.343186239151951E1  -1.056178318044500E2  -6.441632230036323E1  -1.283808591574754E2  -6.033135906221198E1  -9.265302070031916  -2.759691786188419  -1.314072937527271E2  
 3.240002300000000E9    -2.260402051285244E1   1.226649790493327E2  -5.971085549171985E1  -1.584617341337867E2  -5.620938947930449E1   9.997582566591770E1  -2.345334203268318   1.206811771415184E2  
 3.270002275000000E9    -1.964243343334690E1   9.762918521403519E1  -6.881034019676896E1  -4.441980485946682E1  -6.734919990042727E1  -1.139182843892084E2  -2.300315228192660   2.312248968719057E1  
 3.300002250000000E9    -1.966235005355800E1   6.856031347489271E1  -5.666786566037401E1  -1.662197509017120E2  -6.047579613715099E1   5.980162395314440E1  -2.530045461628791  -9.050013961980238E1  
 3.330002225000000E9    -2.586240045035280E1   4.762101612104441E1  -5.022725816857840E1  -1.115409772742145E2  -5.838608495933045E1   2.884695804584565E1  -2.895952983075158   1.517113927647956E2  
 3.360002200000000E9    -2.418059048754646E1  -6.294489294859802E1  -5.846383915654155E1   1.121905227329938E2  -5.988573987678549E1   5.981117275662341E1  -2.428256239997130   4.991070316530958E1  
 3.390002175000000E9    -2.219470182349963E1  -1.235053043402702E2  -6.308442157326633E1  -4.027845808774117E1  -6.158877425868000E1  -7.149817207757893E1  -2.582770434605125  -7.368929806629265E1  
 3.420002150000000E9    -2.290969760869853E1  -1.773853229017529E2  -6.424125028134472E1   1.016529765389993E2  -6.073342977345512E1   1.736085697924098E1  -2.909041205570136  -1.764419197444162E2  
 3.450002125000000E9    -2.145255185548969E1   1.307506944346391E2  -6.142416709437286E1  -1.549915177462134E2  -5.809011708068470E1  -6.475488822274022  -2.533382416679527   8.757184619041942E1  
 3.480002100000000E9    -2.524122155990486E1   6.753821645015378E1  -5.767362409020380E1  -4.620833207909540E1  -5.546214209299561E1  -1.207118839592174E2  -2.503100706374738  -2.453248017496055E1  
 3.510002075000000E9    -1.981491091723709E1   2.211041455588388E1  -6.788957593141647E1   1.654702666651807E2  -6.261671106659493E1   5.464668550016968E1  -2.539347776917968  -1.302208710616881E2  
 3.540002050000000E9    -2.327538480204752E1  -1.529298167994789E1  -6.758297174644164E1  -1.278514817545630E2  -7.057443458055784E1   4.916293765051788E1  -3.149375504978831   1.191422867882081E2  
 3.570002025000000E9    -2.942130147728787E1  -6.592389015907703E1  -6.756998833547716E1  -1.880711082386871E1  -6.012606198829119E1  -7.420079921355151E1  -2.523480548165654  -5.973282199715331  
 3.600002000000000E9    -2.475056879383079E1  -1.585990889059117E2  -5.924035286277223E1  -2.815433129291070E1  -8.195423583091350E1  -1.036061219201027E2  -2.672854514739009  -1.036219311236551E2  
 3.630001975000000E9    -2.173502620317381E1   1.567012020372061E2  -6.478605797239889E1  -4.471371343246588E1  -5.754319560913277E1  -1.556413986566593E2  -3.076265081604019   1.446120790497370E2  
 3.660001950000000E9    -2.216492394581631E1   1.015825159852898E2  -6.089457805299889E1  -1.188370590651961E2  -6.655246132292405E1   1.601669496120385E2  -2.763282817402293   4.276268225635431E1  
 3.690001925000000E9    -2.308007009971453E1   6.713325019379757E1  -7.013624115844860E1  -1.570787867083203E2  -6.692397128369329E1   1.422426449602509E2  -2.595861548864526  -5.404506394791051E1  
 3.720001900000000E9    -2.738567190819316E1  -9.076955515955641  -6.229547882207557E1   1.790313984043560E2  -5.674946187295738E1   1.488662808965460E2  -3.237657904396491  -1.778864449886537E2  
 3.750001875000000E9    -2.696863877728016E1  -4.750387362310620E1  -6.185124295530497E1   3.468921277059909E1  -6.718610250624808E1   7.780095401631427E1  -2.747891471400794   7.726532274723667E1  
 3.780001850000000E9    -2.658472643019062E1  -7.501891620385526E1  -6.116525934192268E1   1.652512156436659E2  -6.977688586484483E1   9.964370470642429E1  -3.118252933694417  -3.740660420763866E1  
 3.810001825000000E9    -2.997344693166625E1  -1.670444050686971E2  -5.535960257682365E1   1.583334486977073E2  -5.369874522227215E1  -1.778722353994131E2  -2.520253563475635  -1.582882669788149E2  
 3.840001800000000E9    -2.198708022583264E1   1.214554591067827E2  -6.064316969698032E1  -1.385697939398711E1  -6.101874182178464E1   1.249576059584981E1  -2.766780644721282   1.083255594946281E2  
 3.870001775000000E9    -1.872170322571279E1   9.563507409883714E1  -5.646745926120037E1   1.000014632186975E2  -5.238094053041201E1  -1.694339139793086E1  -3.054725429355648  -6.464933382332825  
 3.900001750000000E9    -2.353045066889847E1   7.361497973596153E1  -5.748390377072241E1   1.347787447105935E2  -6.162087485952358E1  -1.689027720762323E2  -3.856510499361583  -1.094577125219834E2  
 3.930001725000000E9    -3.472614908636452E1   3.959046105030553E1  -6.028847368324183E1  -8.555310777805705E1  -6.034206023775119E1  -5.283335106774420E1  -2.849956477183626   1.492287652057745E2  
 3.960001700000000E9    -2.374304203464370E1  -1.014993617599384E2  -6.239923996095482E1  -5.422261676701238E1  -5.851696821346005E1   1.557319013893201E2  -3.835322118788975   2.257951796124613E1  
 3.990001675000000E9    -2.481132274037822E1  -1.244776214142426E2  -6.137019829785569E1  -4.004029460513623E1  -5.771229416459492E1  -7.837152109548994E1  -2.505853988923946  -8.088400763359608E1  
 4.020001650000000E9    -3.105016695570412E1  -1.129913374162427E2  -6.217041079971180E1  -1.487315329307374E2  -6.139287308582932E1  -1.416240994641686E2  -3.564625878959367   1.725752095563287E2  
 4.050001625000000E9    -2.867478864280098E1  -1.287453605040872E1  -5.660394846021012E1   1.140933782085724E2  -6.167690586576769E1   7.818497389072734E1  -3.469943502302810   5.531625330587618E1  
 4.080001600000000E9    -1.961883551989234E1   1.774296223887132E1  -5.735447544752102E1   1.735485202136899E2  -6.533984070393930E1  -5.709773448613355  -2.881151081197066  -3.496823772993918E1  
 4.110001575000000E9    -2.019694593872536E1   1.414256712729962E1  -6.541595925843646E1   1.103648624349412E2  -5.921889273503807E1  -2.475004321117153E1  -4.548471831531601  -1.395696992216419E2  
 4.140001550000000E9    -2.190387517364832E1   2.273577218361974E1  -6.235363109256322E1  -1.652645588763522E2  -6.093760956234821E1  -8.023607380158463  -3.638132390985279   9.633878844950176E1  
 4.170001525000000E9    -2.145526766616740E1   7.054383182276104E1  -6.105513334753074E1  -4.962748889223555E1  -6.724955101256811E1  -1.100735139869676E2  -3.527054182777191   1.144816166044734E-1  
 4.200001500000000E9    -2.486495110824924E1   9.760629272165386E1  -7.771778630442505E1  -1.107816660961673E2  -5.990819142796060E1  -1.070285408834162E2  -4.459943607552869  -1.226446987772887E2  
 4.230001475000000E9    -1.749920435020029E1   1.172872297637893E2  -6.247854218635847E1  -1.686145802341771E2  -5.609321688466083E1   2.520632846222129  -2.849009749152591   1.279756881003294E2  
 4.260001450000000E9    -1.891622586622054E1   1.407666012042009E2  -7.003460311846435E1   1.040075573838119E2  -7.372489387180823E1   1.156736414389156E2  -4.366654414756582   3.302251464589062E1  
 4.290001425000000E9    -2.188156866258392E1   1.554814831829529E2  -5.226529319198219E1   4.186378187814386E1  -6.562954568251324E1   3.629711348218427E1  -5.028081520764086  -7.952460194132186E1  
 4.320001400000000E9    -2.156393491623120E1  -1.441122298403312E2  -6.215688445942878E1  -3.052704297114337E1  -6.358893296143379E1  -1.488921436228263E2  -2.741119995550368   1.779128138998880E2  
 4.350001375000000E9    -1.771940921479305E1  -9.248388023775615E1  -6.210774043206201E1   1.402259183169319E2  -6.039567243519017E1  -3.668914495627639E1  -3.888576841276898   8.024567070597701E1  
 4.380001350000000E9    -1.773656970848446E1  -7.702585834113516E1  -5.741322491695922E1  -2.517858836080130E1  -6.610513220707730E1  -1.920272915033917E1  -4.318722548421472  -5.281401640469470E1  
 4.410001325000000E9    -1.991535240111431E1  -5.812139845141930E1  -5.691016040435932E1  -2.296981294126093E1  -6.282194636944384E1  -1.752199512501207E2  -2.688070324852051  -1.523266282774904E2  
 4.440001300000000E9    -1.896551282150492E1  -9.067319005200492  -8.060257847942118E1  -9.461755733052873E1  -6.143217152170603E1   6.918610643053683  -4.314835097375180   9.466773781473555E1  
 4.470001275000000E9    -1.654630582765464E1   2.131566599686434E1  -6.269028121413133E1   1.559106729832526E2  -5.881660996879584E1  -1.754552392721898E2  -3.037933307589995  -2.448220156496034E1  
 4.500001250000000E9    -1.619854289430445E1   2.551451811275941E1  -5.272073371919139E1  -1.661010889309043E1  -6.109505117716678E1   1.059812390736072E2  -1.864292407148485  -1.084442083739353E2  
 4.530001225000000E9    -1.951579473694291E1   6.260448429513178E1  -6.245107373783408E1   1.389102110251770E2  -6.750923323078695E1  -1.036180209118990E2  -4.038588489130390   1.430753666648810E2  
 4.560001200000000E9    -1.941805580714318E1   9.244568349636735E1  -6.348952811973015E1   2.724896606156159E1  -6.564188095398257E1   1.220954740027018E2  -2.427183312230437   2.028813773710171E1  
 4.590001175000000E9    -2.051451038892738E1   1.370164261390977E2  -6.677375528566941E1  -6.470386066008811E1  -5.480836160043483E1   3.859261499648023E1  -1.765314644369338  -8.348870634592667E1  
 4.620001150000000E9    -1.942273045719112E1   1.534005313554753E2  -5.806665568072420E1   9.936175161577940E1  -6.291461034415324E1  -1.393928297354359E2  -3.709810173646594   1.475912086610628E2  
 4.650001125000000E9    -2.329677836947862E1  -1.641051598768005E2  -6.466613930782448E1   1.758786170250683E2  -5.598304107108295E1   4.729176937456279E1  -1.444761731559133   4.477174632298436E1  
 4.680001100000000E9    -2.067515644511976E1  -1.228855535357751E2  -5.998804378034605E1   1.162042288028573E2  -6.669725068902731E1   1.432249214436529E2  -2.299135055502850  -5.482054641683663E1  
 4.710001075000000E9    -1.885525528096562E1  -8.673539676690973E1  -6.418386062879139E1   1.752175408989429E2  -6.475128210812402E1   1.354063749367543E2  -2.970732400996999  -1.641432751086465E2  
 4.740001050000000E9    -1.979038087716704E1  -6.098401047639310E1  -8.097183016132250E1   1.390714559508973E2  -6.688763731498764E1  -3.512720046885173  -1.943898312867991   9.482510030312029E1  
 4.770001025000000E9    -1.837825677989977E1  -3.279933613047292E1  -7.066367548058969E1   1.279660280768895E2  -6.348206948962418E1   1.662949015137436  -3.584308131222073  -1.613516016439278E1  
 4.800001000000000E9    -1.864665979092040E1   8.795291387817274  -6.609830575340031E1   1.755764516587155E2  -5.821642654400280E1  -8.414938022514075  -3.444409813595071  -1.394409597812634E2  
 4.830000975000000E9    -1.848423273496190E1   4.003061430004512E1  -6.696427467665744E1   1.322658151839972E2  -6.809529874350480E1  -1.294743264817158E2  -2.201075135945063   1.123130661098500E2  
 4.860000950000000E9    -1.768569258828103E1   5.901620319598355E1  -6.431169593121220E1  -4.524900078777078E1  -5.976761890434744E1  -9.013727921327443E1  -4.226005212795037  -5.468337591783033  
 4.890000925000000E9    -2.126040644875604E1   9.175829648427299E1  -7.015557168114064E1   1.062136129234627E2  -5.942251517006230E1  -6.598551326987115E1  -2.530217410396582  -1.020995928646471E2  
 4.920000900000000E9    -2.494677234364923E1   1.349123888529465E2  -7.617360587459875E1  -1.734431577162326E1  -7.313940954864277E1  -1.251265872633207E2  -2.342236082280833   1.670930453386979E2  
 4.950000875000000E9    -2.276641426467967E1   1.699950104483786E2  -6.111471124762667E1  -1.230284271940448E2  -6.484888211658864E1   1.159532098889497E2  -3.776962359616711   4.672103416818315E1  
 4.980000850000000E9    -2.010657107472979E1  -1.568934086346214E2  -5.778392152748649E1  -4.527895369184120E1  -6.346630096657543E1  -1.115864260924475E2  -2.830445637591468  -6.226965689265506E1  
 5.010000825000000E9    -2.434267539627891E1  -1.297321407414501E2  -6.379941308770994E1  -2.462139908441183E1  -6.290867321504139E1   6.017007297597254E1  -3.758524039960525  -1.785597877382551E2  
 5.040000800000000E9    -2.583399162570668E1  -7.054047530489395E1  -5.982718025966985E1  -9.788187234401403E1  -6.549393191450832E1  -3.533837402135951E1  -3.502467089629783   6.059622838097041E1  
 5.070000775000000E9    -1.904015295067018E1  -2.519116809351586E1  -6.304567078122680E1   8.625056560025395E1  -6.349380893833223E1  -4.305128800114552E1  -2.239187252010783  -3.737706131338636E1  
 5.100000750000000E9    -1.611845577566479E1  -1.411488684898569E1  -7.366978383085143E1   4.911823490253417E1  -5.985300136790779E1  -6.471507140761875E1  -3.161368567126470  -1.375965830647553E2  
 5.130000725000000E9    -2.037027366502943E1  -1.242627597761572E1  -6.439913831839827E1   4.235912821278529E1  -6.131386791372550E1  -1.871583270311774E1  -3.203468389463152   1.232713907032509E2  
 5.160000700000000E9    -2.642307228674760E1   5.211578255835467E1  -6.637191331949076E1  -1.542260236976238E2  -6.524070761371772E1   5.799737430368077E1  -2.964126106055070   1.277678291686174E1  
 5.190000675000000E9    -2.096461403427015E1   1.041619182717798E2  -6.474300174513698E1  -1.781143067569658E2  -7.151184905564814E1  -1.386270036124665E2  -4.167414624778147  -1.101267838011826E2  
 5.220000650000000E9    -2.106619964071960E1   1.102875274790029E2  -7.527662584556099E1   1.643045220417361E2  -6.680937593196346E1   1.720960794001893E2  -2.993466849437552   1.394435672041074E2  
 5.250000625000000E9    -2.506833088307092E1   1.121132571056011E2  -6.145711240750071E1  -4.613101555059050E1  -7.350274058355637E1  -8.152199195380493E1  -3.430227028433677   2.334955228769921E1  
 5.280000600000000E9    -2.828265519670123E1  -1.040680420176248E2  -6.272808888678702E1  -8.242323590415919E1  -6.025901420999367E1   3.716039825772805E1  -3.663243499128182  -8.598457988897779E1  
 5.310000575000000E9    -1.740610472369792E1  -1.055659079593721E2  -6.895477877627981E1   1.094666306810724E2  -6.574026236417296E1  -5.347107416974990E1  -2.312054782107237  -1.760079352311289E2  
 5.340000550000000E9    -1.878682707160151E1  -9.416643491865615E1  -6.944235561931846E1  -1.405299810920229E2  -5.881332007755289E1  -1.253830469261749E2  -3.176458506625069   8.392771566576215E1  
 5.370000525000000E9    -2.282363862638343E1  -6.880538976540403E1  -6.714948050119060E1   6.958758159657808E1  -7.057127452742515E1   3.224146403409994E1  -3.728953553763570  -3.000048369861353E1  
 5.400000500000000E9    -2.449523880011236E1  -7.093129578100031  -6.314643151963227E1  -6.936330790153464E1  -6.766585096775012E1   1.032242242874641E2  -2.942719548998273  -1.480508630916708E2  
 5.430000475000000E9    -1.989580851113861E1   2.212764004505827E1  -6.809666063122283E1   1.255535832918737E2  -6.883523140485693E1   3.799572632266361E1  -3.740953742141759   9.390141263375857E1  
 5.460000450000000E9    -1.764937104767135E1   2.848464141550515E1  -5.903509079897267E1  -1.125339629764403E2  -6.432223200636493E1  -4.286606628026906E1  -2.933700516475005  -1.789305710333516E1  
 5.490000425000000E9    -1.944348543209445E1   6.145954033763198  -6.009973364868287E1  -1.780781791182514E2  -6.351386423391815E1  -4.658534722748529E1  -2.410022715738871  -1.198818783139173E2  
 5.520000400000000E9    -2.641213838039747E1  -1.260169328226494E2  -6.472430713302894E1   5.332404176895906E1  -6.194219552330921E1  -1.444855974016490E2  -3.415191561182446   1.469529176432565E2  
 5.550000375000000E9    -2.048245574396940E1  -1.766584201619278E2  -7.813181053650804E1   1.472441692467636E2  -6.856788538613395E1   5.555253367428842  -3.058370618821792   4.350370641475058E1  
 5.580000350000000E9    -1.849406030335824E1   1.772108460375423E2  -7.077729227447765E1   1.009989112637059E2  -6.513313920571807E1   4.722171717466196E1  -3.484284469850789  -7.765126428774948E1  
 5.610000325000000E9    -3.127132437177592E1   1.754188466042108E2  -6.513357488543541E1   3.158311603679954  -8.061060676449753E1  -7.470807574728053E1  -3.220349160020540   1.668647092053604E2  
 5.640000300000000E9    -2.366891564542942E1  -5.109897803344490E1  -6.508952977575470E1   1.412099291424873E2  -6.063970484665054E1   9.843206041365737E1  -2.675370984853282   5.576657634968064E1  
 5.670000275000000E9    -1.831275652318461E1  -4.375953586367804E1  -6.043310583114098E1  -1.253528982088544E2  -5.985279939762891E1  -4.860770637475819  -4.104868777012533  -5.845447040952569E1  
 5.700000250000000E9    -1.584874747828480E1  -4.761946988472172E1  -5.957250250630381E1  -1.162752049306051E2  -6.594094805789165E1  -5.152857438724354E1  -2.797649584718291  -1.577150897674160E2  
 5.730000225000000E9    -2.152226447448309E1  -6.924450429381491E1  -7.013530557899476E1   1.604612184153361E2  -6.236145431617450E1   1.621360552747665E2  -2.380073762676053   1.050141279859808E2  
 5.760000200000000E9    -5.355711689199950E1   5.273936403820407E1  -6.229387056056391E1  -1.536161213351310E2  -5.948185251387946E1   1.354846462246561E2  -3.999700410117120  -1.080915160625223  
 5.790000175000000E9    -1.955693747390591E1   8.058809121007987E1  -5.884196398533478E1   3.465772832201952E1  -6.035949938906201E1  -8.880962097477601E1  -2.877348266478136  -1.211038502574489E2  
 5.820000150000000E9    -1.818670997778574E1   8.582783512803819E1  -6.481996491447686E1  -1.478513578353029E2  -7.143682771982711E1  -1.233563640446924E2  -3.309435950518852   1.204717505754791E2  
 5.850000125000000E9    -2.463896002815153E1   6.117881425543491E1  -6.475413207210964E1  -1.295327610633086E2  -7.230652081538675E1   3.841858380801177E1  -3.488566467543498   9.515803429448686  
 5.880000100000000E9    -2.286005545494232E1  -8.667141125819322E1  -7.122127107977988E1  -1.560708637647439E2  -6.740538963591756E1   5.919368672005027E1  -2.758217480834743  -9.691003624045681E1  
 5.910000075000000E9    -1.786379100528904E1  -9.812753838863699E1  -7.777467932820117E1   1.675982311350041E2  -5.986575442768860E1   1.423308792977228E2  -2.908655849781098   1.624487460868103E2  
 5.940000050000000E9    -1.745674025326281E1  -1.205985716836552E2  -7.242323810983676E1   6.169142145150050E1  -6.059037443723351E1  -2.349831686200742  -3.012264497550270   6.414795611038217E1  
 5.970000025000000E9    -2.422719812396441E1  -1.079964591809369E2  -6.379559563316091E1  -1.098070552097329E2  -6.112316016624117E1   1.076504641274818E2  -3.150938478594604  -4.776959747441186E1  
 6.000000000000000E9    -2.338776409952764E1   8.660298696680989  -6.103193186028017E1  -3.478408494964386E1  -5.845335312944229E1  -7.819897809711398E1  -3.940700766746415  -1.674705060449790E2  
