#  HZ   S   DB   R     50.0 
! Rohde & Schwarz ZVL13 2Ports - Version 3.20 - 1303.6509k13 SN: 100953
! Date: 2024-10-21 06:09:29
! Data & Calibration Information:
! Trc1:S11(Cal Off) Trc4:S21(Cal Off) Trc2:S12(Cal Off) Trc3:S22(Cal Off)
! 
! 
! 
 5.000000000000000E3    -1.288815118703546E-2  -1.892376461785225E-1  -6.073770278036203E1  -1.466743408461802E2  -6.771600092385789E1   4.264592427992978E1  -8.046189620291357E-2  -3.902576639147005E-1  
 3.000497500000000E7    -7.874344066718583E-2  -1.117047121515928E2  -5.832238122802411E1  -2.279148264499824E1  -5.529931048635825E1   1.568130100649627E2  -1.798820437066376E-1  -1.112252583228052E2  
 6.000495000000000E7    -4.751743434984351E-1   1.357451661547238E2  -6.700398409844469E1   1.986422693933431E1  -5.934137064950190E1  -2.848643189871061E1  -4.791214486362695E-1   1.388473946297951E2  
 9.000492500000000E7    -5.959367625153972E-1   2.576017184264566E1  -6.567710046933907E1  -7.007688292314519E1  -6.221127779572952E1   1.267818889264260E2  -6.395958498589096E-1   2.809388281142588E1  
 1.200049000000000E8    -6.964389400070339E-1  -8.077472577947222E1  -5.496281374686434E1   1.098026273308375E2  -5.819377589874541E1  -9.096493045459729E1  -6.831281640937235E-1  -7.776093289966242E1  
 1.500048750000000E8    -6.711930404397777E-1   1.686510271375149E2  -6.905351961100790E1  -5.715858993469472E1  -6.437032018343889E1  -2.812624464484062E1  -6.521575508164450E-1   1.737949333973062E2  
 1.800048500000000E8    -6.921658259094826E-1   6.034015252649619E1  -5.574614605427748E1  -2.152738739488226E1  -6.602154923484711E1   1.342861286163265E2  -5.213710121394545E-1   6.587365263806996E1  
 2.100048250000000E8    -5.077018240588482E-1  -5.188148017775915E1  -6.770531526595502E1  -1.088004111377053E2  -6.242133596216332E1   7.551339265062440E1  -6.273333401832630E-1  -4.367103689623351E1  
 2.400048000000000E8    -7.541131890625936E-1  -1.627293349332226E2  -6.019139658574868E1  -4.795026939804322  -6.659866839087697E1  -1.165375570909013E2  -8.727262491869937E-1  -1.569682345274454E2  
 2.700047750000000E8    -9.664904364497189E-1   8.611337224920717E1  -6.370717915417649E1   1.786311083749162E2  -5.864494928347206E1   8.019906004890144E1  -1.096491196180622   9.246812715145092E1  
 3.000047500000000E8    -1.252031304262924  -2.466209819442926E1  -5.756992742984198E1  -1.301886622380918E2  -7.633356305088468E1  -1.250539768884925E2  -1.094895643713694  -1.763130102664032E1  
 3.300047250000000E8    -1.120825115388466  -1.306470909588785E2  -6.397797245056809E1  -9.366575270165323E1  -5.945714348571450E1  -1.075095998142246E2  -1.047519351216781  -1.246588036189906E2  
 3.600047000000000E8    -1.081337471454812   1.180478802855502E2  -6.082888957153287E1  -7.601692738979610E1  -6.376507983797909E1   4.454379508433082E1  -1.064604069048601   1.320802570263462E2  
 3.900046750000000E8    -1.017085490166013   1.048164153700262E1  -6.217944105770837E1   4.008436149268497E1  -6.916631528330237E1   8.842456388124744E1  -9.302304391481564E-1   2.190204023442598E1  
 4.200046500000000E8    -1.060409254893018  -1.002422470618086E2  -6.337922531130700E1  -7.273566206077279  -6.937765990214555E1  -7.407428722659236E1  -9.618599842508294E-1  -8.674003382086440E1  
 4.500046250000000E8    -1.229033510324595   1.454913482049933E2  -6.556088020819252E1   1.001555930323174E2  -7.334815033427277E1  -1.597281720198084E1  -1.284788757376310   1.622584609626826E2  
 4.800046000000000E8    -1.357630153405183   3.827423936343632E1  -5.886883688674445E1   1.061733419344982E1  -6.812911253455373E1  -1.773323985205552E1  -1.534134552222630   4.653784449971056E1  
 5.100045750000000E8    -1.323900990519052  -7.445099655540267E1  -6.307835154254272E1  -3.944959193541155E1  -6.869871230614325E1  -8.617659123689067E1  -1.299072940207942  -6.075696997942598E1  
 5.400045500000000E8    -1.182989170425866  -1.795318237498519E2  -6.438884518349785E1   1.730945716658373E2  -6.599578990274335E1  -7.398748721100712E1  -1.392305464050128  -1.669045495536745E2  
 5.700045250000000E8    -1.335009412784663   7.213831561660111E1  -5.908055429578439E1   1.522409081292810E2  -6.352803104302544E1   1.274489625658872E2  -1.195827613074665   8.729468741249006E1  
 6.000045000000000E8    -1.330845197074924  -3.964355591474675E1  -5.882707084891799E1   5.579598595188717E1  -6.460043234652119E1  -2.116821066888571E1  -1.092532958568893  -1.662842216126118E1  
 6.300044750000000E8    -1.502539430665291  -1.469689664058250E2  -5.675628381148057E1  -1.491457874805109E2  -5.761487340615555E1   1.469687023960710E2  -1.286785055807648  -1.284576704426702E2  
 6.600044500000000E8    -1.781774869822244   9.611390013504851E1  -5.226489497048478E1  -5.137772675734767E1  -5.968506317578818E1  -1.170995019107450E2  -1.593631150862557   1.186301909174623E2  
 6.900044250000000E8    -1.682891743427124  -1.092171286103240E1  -5.978944062711683E1  -7.068797474214415E1  -6.710562683848637E1  -7.288408974855139E1  -1.661144369585933   6.859279204077291  
 7.200044000000000E8    -1.646419650675249  -1.208038322379288E2  -6.063828339926791E1  -1.552262417209804E2  -5.778460636621995E1  -1.647104999831742E2  -1.454676210311197  -1.061618518022357E2  
 7.500043750000000E8    -1.466012052233679   1.309018795006818E2  -6.805476754658396E1  -5.342409823923003E1  -5.699420292918837E1  -1.488396916302506E2  -1.338673618888089   1.534445773988039E2  
 7.800043500000000E8    -1.429738692391000   2.587285386020981E1  -6.497992458506448E1  -4.284828679028028E1  -7.617032359206083E1   4.604799371426840E1  -1.334366142884994   4.913176107647695E1  
 8.100043250000000E8    -1.427001553958460  -8.998145041978137E1  -5.729014612136936E1   1.518166648197165E2  -6.088420178143231E1  -1.341391816465622E2  -1.301578830956635  -5.995360915686712E1  
 8.400043000000000E8    -1.859582705394951   1.628923728487905E2  -7.167212426075811E1  -5.728603251707779E1  -6.806045226939854E1   1.579975153792925E2  -1.575816220622540  -1.663602892240881E2  
 8.700042750000000E8    -1.920154518031765   4.886290565660689E1  -5.649609309978354E1   2.482033961183807E1  -6.777316662477638E1   3.143195142649031E1  -1.846351527051940   7.398524049599995E1  
 9.000042500000000E8    -1.820737597597905  -6.280483175091126E1  -5.618322717095661E1  -7.398945106193588E1  -5.299602547325195E1   1.003606434930250E2  -1.820458093074860  -3.922299615780170E1  
 9.300042250000000E8    -1.749967113706419  -1.665428067002988E2  -6.203751484676449E1  -3.700406378669101E1  -6.415665458430222E1   1.590501265718042E2  -1.678444100858400  -1.456813948431127E2  
 9.600042000000000E8    -1.496892826147143   8.393096476698736E1  -5.667825826417609E1  -1.357514225223350E2  -5.608862236572687E1   4.949078068559196E1  -1.391232732861745   1.068612783331860E2  
 9.900041750000000E8    -1.444328813515469  -2.189250879108590E1  -7.059373417407889E1  -7.272475295463245E1  -6.025007272728366E1   1.324848394349729E2  -1.342354453875358   6.836711733183183  
 1.020004150000000E9    -1.574361101100114  -1.368259918986575E2  -5.720106904791028E1  -3.126065359714009E1  -6.737682544766790E1   1.125420937650053E2  -1.376913918690992  -9.968544654282299E1  
 1.050004125000000E9    -2.072333603039231   1.118297211722233E2  -5.312212307892253E1  -1.418716128931338E2  -6.061723502375699E1  -1.146366232658852E1  -1.841393386559885   1.470152646813218E2  
 1.080004100000000E9    -2.054928343485240   2.993801888336451  -5.692709099923975E1   1.295643409391011E2  -6.358101779131208E1   1.705121082902020E2  -2.020786942438606   3.413290659022515E1  
 1.110004075000000E9    -1.980196637651489  -1.120098852818421E2  -6.392022972823526E1   1.006550853761183E1  -5.571467124611365E1   9.638691455411582  -1.797766302018230  -8.442947819806933E1  
 1.140004050000000E9    -1.955416879235688   1.453452122068408E2  -5.512699009518048E1   1.599498226761367E2  -6.388617956174557E1  -1.946804018801631E1  -1.722041283445771   1.688729896835549E2  
 1.170004025000000E9    -1.528430202326701   3.771152545724920E1  -6.471921433437636E1   5.023448094609928E1  -5.655910872724497E1   9.732071829854264E-1  -1.440124069835401   7.079127232894341E1  
 1.200004000000000E9    -1.842685289614547  -7.391475285553366E1  -6.158865286160131E1   1.557281499120626E2  -5.540266117336696E1  -1.604657215812164E1  -1.377031239903949  -3.827852755727992E1  
 1.230003975000000E9    -1.775296257160237   1.763118989002961E2  -5.987736333812280E1  -1.623846628672020E2  -6.889386713185576E1   1.709584204167574E2  -1.885026458222810  -1.435464634537412E2  
 1.260003950000000E9    -2.082008784341758   6.099774637885048E1  -5.651949854792421E1   1.065776511302419E2  -6.514673677525515E1   2.122599630485212E1  -1.933326443800239   1.055305300441124E2  
 1.290003925000000E9    -2.333472907613509  -4.587403332325094E1  -5.860564455857733E1  -3.092274508818380E1  -5.506655728268614E1   1.033632436675594E1  -2.322281439789791  -1.757910823443609E1  
 1.320003900000000E9    -1.931992608303283  -1.574338839715571E2  -6.324839464632859E1  -1.901323530261175E1  -6.107331475879737E1   1.579233839548142E2  -1.985928431134291  -1.232264485382656E2  
 1.350003875000000E9    -2.096445837469589   9.619861696024434E1  -5.590973413581302E1   6.283177180859808E1  -5.623066737866799E1  -1.143527484420499E2  -1.566732407768839   1.292131007853107E2  
 1.380003850000000E9    -1.490738735791928  -7.939271095360263  -7.295058933320264E1  -1.652720967337385E2  -5.861830619767871E1   1.322605665425817E1  -1.729895345077516   2.367013147090791E1  
 1.410003825000000E9    -2.093307500707753  -1.252410520632487E2  -5.790064807749599E1  -9.274509070873555E1  -7.005449543203413E1  -1.588495739564349E2  -1.569483572172504  -7.470621143661478E1  
 1.440003800000000E9    -2.248777599902763   1.269301482671727E2  -5.908387844870100E1   7.116257317306403E1  -5.534578858328867E1   1.486363845188406E2  -1.770619501268164   1.730473870268419E2  
 1.470003775000000E9    -2.229232780232224   1.392273268070482E1  -6.178080682526516E1  -6.652116889573637E1  -6.372899352743373E1   4.975284966731720E1  -2.553960285030303   6.142573457961414E1  
 1.500003750000000E9    -2.747459618531634  -9.722488661160536E1  -5.629038155774123E1   1.328298628718836E2  -6.934903509128030E1   1.129575589187763E2  -1.992075556050375  -5.448776950450560E1  
 1.530003725000000E9    -1.639982844920668   1.580542311498647E2  -6.688231773331394E1   2.796457212160914E1  -6.056602057302882E1  -1.127688464939467E2  -2.204228151465174  -1.692943685527592E2  
 1.560003700000000E9    -2.397562699797781   4.819430238628950E1  -5.983426065448292E1  -6.438241247957349E1  -5.844649936679516E1  -1.305296949842057E1  -1.794699461985274   9.056562268300019E1  
 1.590003675000000E9    -1.765071074909388  -5.760856985509540E1  -7.070264822208056E1   8.292969796849117E1  -6.866749293514953E1  -2.953161404419024E1  -1.525524762445785  -1.514224011152329E1  
 1.620003650000000E9    -2.338632146019033  -1.729230676899641E2  -5.983453236255657E1  -9.713042781116967E1  -5.416485729948546E1   1.673905265296335E2  -2.427163812173265  -1.220628168561508E2  
 1.650003625000000E9    -2.645897837557805   7.564954562989490E1  -6.257995493387310E1  -1.107969297558786E2  -5.532528970909554E1   1.994724410517035E1  -1.965691351915482   1.339855760083285E2  
 1.680003600000000E9    -2.161064073117180  -3.236429816294554E1  -6.173084106759701E1  -7.381724683610283E1  -7.447740296021772E1  -1.265431938084347E2  -2.721035925380131   1.635675617090428E1  
 1.710003575000000E9    -3.017999609553361  -1.456965054781323E2  -6.682164084630411E1   1.371366838824242E2  -6.464272418153396E1  -1.282236717036982E2  -2.527330357229462  -9.833512438386546E1  
 1.740003550000000E9    -1.819589733975233   1.099205406018818E2  -6.352995063975435E1   1.461700686905642E2  -5.996895748579750E1  -1.088609397201856E2  -1.677032849437184   1.551027490768599E2  
 1.770003525000000E9    -2.383258409940869   2.069099087922191  -5.273071281020873E1   9.321076160589576E1  -4.934155255388159E1  -1.276603438958937E2  -2.160436414085945   4.728922877824281E1  
 1.800003500000000E9    -2.166112228353307  -1.120132228306057E2  -6.683514103398497E1   5.021703206833077E1  -5.995104239611273E1   1.296744120905446E2  -1.734466297332058  -5.558119375111068E1  
 1.830003475000000E9    -1.924201246653783   1.403680989733831E2  -5.873390718876167E1   5.777356157276128  -6.102542741640458E1  -1.386881708383531E2  -1.963605911379729  -1.606773758396871E2  
 1.860003450000000E9    -3.033085646885271   2.604870081041578E1  -5.464873129703272E1   7.523407047968163E1  -5.145939950013410E1   2.879289631531145E1  -2.745827048323819   8.566454168870385E1  
 1.890003425000000E9    -2.076834100423182  -8.213913370317245E1  -7.962567908350846E1   1.653565564177673E2  -6.022490401527979E1  -4.687076106724929E1  -2.175315652494451  -2.596911813694203E1  
 1.920003400000000E9    -2.768822686914505   1.683548746379448E2  -5.433632746732490E1   6.925656491574074E1  -5.380623159973064E1  -1.387765505611549E2  -2.569873543710003  -1.408155811973871E2  
 1.950003375000000E9    -2.036849924840705   5.798900991557151E1  -5.398590321173872E1   9.473948392262025E1  -5.845968979599284E1  -9.964532648028045E1  -2.039640589974265   1.086994546258133E2  
 1.980003350000000E9    -1.921716038133447  -4.482095793787991E1  -6.131319049163322E1   8.590145108334637E1  -6.392616761201379E1  -1.153081625146891E1  -1.665295016623328   8.178112188438723  
 2.010003325000000E9    -2.611638428698640  -1.654171725267827E2  -6.766556957945959E1   2.915218940615698E1  -5.020586371178921E1  -1.598026657432870E2  -2.385874404347392  -1.016053828220768E2  
 2.040003300000000E9    -1.878152703320659   8.931320918808012E1  -5.677694807406768E1   1.236245361824182E2  -5.665735583924085E1   5.669460890931189E1  -2.221743936589720   1.515132827564554E2  
 2.070003275000000E9    -2.980109514456653  -2.100815907515464E1  -7.062857809062162E1  -8.028266641228227E1  -5.615906417998274E1   4.622019890707460E1  -2.512027676731282   4.500840289239216E1  
 2.100003250000000E9    -2.349255508257464  -1.346083049328827E2  -5.861474546967535E1  -1.866809673916529E1  -6.483177356921419E1   8.005834042951237E1  -3.018246868871266  -7.562676090938403E1  
 2.130003225000000E9    -2.384899193934187   1.254445359282257E2  -7.045984902761032E1  -1.702002072473939E2  -6.509770176311585E1  -6.476471945211910  -1.941004570207563   1.765948076701416E2  
 2.160003200000000E9    -2.526585142430510   9.173497489528623  -5.274121992707902E1   3.485830984657972E1  -5.738723329594055E1  -4.635883811123756E1  -2.332992462560549   7.028833419679437E1  
 2.190003175000000E9    -1.760400579778383  -9.573414180750949E1  -5.691684340687765E1   1.461041024108718E2  -5.718989928237649E1   9.199429242199136E1  -2.285324096566292  -4.168133232797085E1  
 2.220003150000000E9    -2.918101322729740   1.511127633795278E2  -5.941065475221520E1   8.063153545752398  -6.174519610278746E1   1.402674347527867E2  -1.830826335902174  -1.403060347357339E2  
 2.250003125000000E9    -2.075811354132721   3.835410690174837E1  -5.967820624461884E1  -9.932628998949106E1  -6.835078660844246E1   8.449804488945813E1  -2.954882889462355   1.103459508679264E2  
 2.280003100000000E9    -2.754823146416626  -6.287830486399125E1  -6.499041148428807E1   5.157720900376385E1  -5.518657314603119E1  -1.151923988538043E2  -2.760031084466757  -5.325518343447643  
 2.310003075000000E9    -2.825920592727983   1.752464134866124E2  -6.569913433082959E1   1.796659484192940E2  -5.543367386662501E1  -8.856525872819837E1  -2.523889964902188  -1.092956858539303E2  
 2.340003050000000E9    -2.025985794385859   7.456465927603634E1  -6.544315442421271E1   7.419225920779705E1  -5.931693973549453E1  -1.602944528196361E2  -2.909817226804324   1.330159435012689E2  
 2.370003025000000E9    -2.767806884598011  -3.768803345322687E1  -5.795010807437941E1   2.912161062361247E1  -6.722044630911768E1   3.399778279711907E1  -1.871370736955510   2.671132931837093E1  
 2.400003000000000E9    -2.196099743266331  -1.539849993208898E2  -5.587495699981906E1  -4.313470710976739E1  -6.175105618088277E1  -6.723897326748181E1  -2.486616151625912  -7.688770339422534E1  
 2.430002975000000E9    -2.466981820703255   1.050351667632839E2  -5.899637888987066E1   1.162976327896927E2  -5.435151048449451E1  -1.412387228939142E2  -3.088821860317714   1.684824907787945E2  
 2.460002950000000E9    -2.759417674772787  -1.509111864092965E1  -6.477576482518748E1  -3.852009557166259E1  -5.646429459673276E1   1.420259315061604E2  -2.514877303188786   6.667509490040773E1  
 2.490002925000000E9    -2.488708957835318  -1.151469955553020E2  -6.301723959876476E1  -1.132711142148799E2  -6.685800604835796E1  -2.308639902452836E1  -3.518487905593711  -4.353804709745994E1  
 2.520002900000000E9    -3.112768851351927   1.337012259017318E2  -5.444994951960033E1   1.684959422456794E1  -5.731176547389683E1  -6.894484822968687  -2.971892758396393  -1.614300199156923E2  
 2.550002875000000E9    -2.304355791861302   2.018466801704026E1  -5.868208101882335E1   1.684200349700346E2  -7.002464468320929E1  -1.407921028473994E2  -2.135102884333032   9.744656522478549E1  
 2.580002850000000E9    -2.401163928251368  -8.156311946527819E1  -5.531345389095112E1  -1.131569640188235E1  -5.431773423921553E1  -5.315514236374481E1  -3.007431330975181  -1.964287344165316E1  
 2.610002825000000E9    -2.734653532604000   1.541935822399181E2  -5.192388181720218E1   1.317654293604791E2  -5.467903631164246E1   7.762461162975589E1  -2.405649091302907  -1.275762598690482E2  
 2.640002800000000E9    -2.253338654499758   5.510943755573181E1  -5.622565704799106E1  -2.571901043357916E1  -6.324037546277208E1  -1.972233030899650E1  -2.839237138827174   1.367580445681882E2  
 2.670002775000000E9    -3.195151069077336  -5.899814042011565E1  -5.874010000696509E1   1.873895034565564E1  -5.307308083733538E1   1.662557075582733E2  -4.158869700527260   1.706326284644019E1  
 2.700002750000000E9    -2.952731573845318  -1.729514403403619E2  -5.891380179404625E1   5.962431982690458E1  -5.294255865923530E1   7.349776710274826  -2.820338398302165  -9.140994058694979E1  
 2.730002725000000E9    -2.418184519963957   8.995250989406868E1  -7.032904568005915E1  -1.347236178022040E2  -5.642595023440845E1  -2.863369886835583E1  -2.918500764532910   1.649835943567163E2  
 2.760002700000000E9    -3.179677513788030  -3.107582144930937E1  -5.991325956647624E1  -2.932179349252754E1  -4.949288268982964E1  -9.043425172987762  -3.185539304925714   4.322128619349059E1  
 2.790002675000000E9    -2.189448817352043  -1.350911637508254E2  -6.071543264749504E1  -9.568762640394064  -6.362645205485895E1   1.590176005385598E2  -1.890093220233020  -5.810486385839065E1  
 2.820002650000000E9    -3.019003203865607   1.147159345877342E2  -5.380929011802240E1  -1.629671911531357E2  -5.475700339695621E1  -6.793113532282344E1  -3.632326120662969  -1.665604629303929E2  
 2.850002625000000E9    -3.046019549998359  -1.874033961880314  -6.784376884661803E1  -2.725713009259917E1  -5.095212232082760E1  -9.328657772147672E1  -3.875287965498592   7.768636612503840E1  
 2.880002600000000E9    -2.641336580928875  -1.018279685520777E2  -5.657884967955776E1   5.332478467671073E1  -5.986191096902302E1  -1.138162521235521E2  -3.143181832459261  -1.692913609160305E1  
 2.910002575000000E9    -3.924247969476658   1.396646392209535E2  -5.032273756461311E1  -3.721972329682892E1  -5.899239675481404E1  -2.088387004331771  -4.863195261352610  -1.344659682154797E2  
 2.940002550000000E9    -2.382626089079579   3.922868381815981E1  -5.517466664522607E1  -4.070462081875225E1  -5.427532743975042E1  -9.461561623253751E1  -2.805322593652224   1.144956365633791E2  
 2.970002525000000E9    -3.218001567134305  -6.884126371802569E1  -5.038671406554473E1  -1.009478624778384E2  -5.424431381460615E1   1.189507393498210  -2.395460192402391   1.595316805953889E1  
 3.000002500000000E9    -2.579175093093459  -1.795936638415773E2  -6.294186040628953E1   1.669175588137921E2  -5.429452574632580E1  -2.454537729650749  -2.032603442824866  -1.065375323233980E2  
 3.030002475000000E9    -2.328838386563008   7.578429284063719E1  -5.428784244930326E1   1.641257499115265E2  -5.373747997612794E1   1.298411958501893E2  -2.553171334486371   1.610041964340166E2  
 3.060002450000000E9    -2.847961977532810  -3.928369055526996E1  -6.378756011976434E1  -1.541336162027899E2  -6.107978898128216E1  -1.071114682930866E1  -4.710212508990920   4.795313241530606E1  
 3.090002425000000E9    -2.745750960562161  -1.465654223643578E2  -6.232577320511968E1  -4.968480081277074E1  -6.066198715642012E1   4.378388664900598E1  -3.229812616408821  -6.326087377832803E1  
 3.120002400000000E9    -2.683742590392483   1.063322576830053E2  -7.103873757446851E1  -2.659929359846143E1  -5.834430668286327E1   2.105816963130921E1  -3.455306417330764  -1.607614225706193E2  
 3.150002375000000E9    -2.370819644584504  -2.357132277869426  -6.103636370619743E1  -7.379235188739654E1  -5.731591318923400E1   1.144588168257862E2  -2.930665261982995   7.837369376951098E1  
 3.180002350000000E9    -2.179921054199214  -1.100513371416862E2  -6.423526824609743E1   1.651009993777459E2  -5.899965425848381E1   2.918284502137581E1  -1.864596905751912  -3.135526117638847E1  
 3.210002325000000E9    -2.691009820007988   1.330994041268608E2  -7.508843173755577E1  -1.622572223041437E2  -6.673209230260208E1  -9.262595670200611E1  -3.716481868586219  -1.340717711973985E2  
 3.240002300000000E9    -2.909831235849054   2.727395564876507E1  -6.184651326730089E1  -1.339072411012123E2  -6.323521605824691E1   1.024120352015061E1  -3.423383955014820   1.052442422424513E2  
 3.270002275000000E9    -2.989759269004254  -9.020807836923117E1  -6.301719123582004E1  -1.136511740340228E2  -5.496065372912877E1  -9.145411711201525E1  -4.369125705418900   9.205683944706852  
 3.300002250000000E9    -3.265470753808999   1.598893463047185E2  -6.762941404913363E1   1.062747991970111E2  -6.288222032740541E1  -7.464590507354235E1  -4.714229704450264  -1.039656792122510E2  
 3.330002225000000E9    -2.359619989550009   6.254610064287505E1  -7.213827129086324E1   1.378745206019264E2  -5.997067193161084E1  -7.145093627945039E1  -3.120394279437230   1.436314275264073E2  
 3.360002200000000E9    -2.952917417425847  -5.000852910857032E1  -6.220367772789529E1  -4.329953881035737E1  -6.112327114321712E1  -1.732055970252286E2  -2.644329685156737   4.866784730890713E1  
 3.390002175000000E9    -2.966826575846455  -1.574735345781598E2  -6.937378223882296E1  -1.792435905367303E2  -6.148810429377361E1  -7.776050536235408E1  -2.803665665898792  -7.384174322739260E1  
 3.420002150000000E9    -3.360283427262976   8.507867007769153E1  -6.931864580438220E1  -9.626594191580573E1  -5.795081833223217E1  -5.737013386005638  -4.472689831229682   1.744894915161064E2  
 3.450002125000000E9    -3.623966824253583  -2.641340910525123E1  -6.634111965418201E1   1.313750934598922E2  -6.055690830393397E1  -7.236958368441364E1  -6.307364602622589   7.565010229390664E1  
 3.480002100000000E9    -3.120436249449534  -1.380422581864246E2  -6.834699913315377E1  -2.626800117420453E1  -5.948568527339096E1   1.768562023512014E2  -6.397461716366005  -4.681144700312298E1  
 3.510002075000000E9    -3.558392945679440   1.152775631887960E2  -6.321028040892595E1   8.257147859149957E1  -6.475038865688990E1  -5.063763503020385E1  -4.677119645334133  -1.374980326093090E2  
 3.540002050000000E9    -2.736411174586054   1.923565311879669E1  -7.093978348208637E1   9.595668422249757E1  -7.156816940426391E1   9.408761967587337E1  -3.992353786647171   1.126465707137479E2  
 3.570002025000000E9    -2.704183958713651  -9.526496989666417E1  -5.615290506130006E1   7.530303935378088E1  -6.306275282017633E1   1.506372174934545E2  -2.880719001187022  -2.804675268271623  
 3.600002000000000E9    -3.467360684971827   1.519085682851945E2  -6.536351354283718E1   8.862923085322777  -5.881206451042306E1   3.792691400529597  -4.079276428089369  -1.063119304392474E2  
 3.630001975000000E9    -3.183556380118831   3.836483988979972E1  -5.911940073248608E1  -1.072422893727041E2  -6.480668177651489E1  -3.399316531429203  -6.547763084016853   1.385123423541397E2  
 3.660001950000000E9    -4.300042673294888  -7.656600100482906E1  -6.830347939796829E1   1.012537325986862E2  -6.245945124647964E1   1.349425743851435E1  -7.825453893941003   2.661215234478225E1  
 3.690001925000000E9    -3.426648296857290   1.747897026297077E2  -5.891392351671998E1  -1.200043752749673E2  -5.983315544579364E1   5.706359261108108E1  -7.221259696116825  -7.012595793536424E1  
 3.720001900000000E9    -3.017507092601696   7.264318667943411E1  -6.425229982712470E1   8.243911173950155  -5.696739250493793E1   3.348134734823149E1  -6.325262885827516   1.759418677139986E2  
 3.750001875000000E9    -3.389761944062342  -2.589980396486826E1  -6.205915145970118E1   1.632352787213341E2  -6.757760478131984E1   9.965728837008545E1  -2.734544899006189   7.421668529740802E1  
 3.780001850000000E9    -3.201094644238083  -1.408993056714098E2  -6.329389675620650E1   5.732183992800184E1  -8.217462159471545E1  -1.726843694116306E2  -3.732070650474657  -3.523184406368820E1  
 3.810001825000000E9    -3.846822618652442   1.013018900677724E2  -6.595262853185244E1  -1.417873056963360E1  -6.936316350021298E1   1.206051615024159E2  -5.878211984224464  -1.572768040958654E2  
 3.840001800000000E9    -3.499598121204297  -8.714028838182648  -6.091345002153723E1   7.332369878915976E1  -6.684051771177138E1   6.859605184283149E1  -7.587638705302618   1.166246078307141E2  
 3.870001775000000E9    -3.753481041175849  -1.322865118004582E2  -5.587952409970706E1   1.624666030014992E2  -6.153651702498797E1  -9.483016650915944E1  -1.140093618860179E1   1.589513973724722  
 3.900001750000000E9    -3.437706759588536   1.294204566142278E2  -6.694826850660581E1  -1.037113216703910E2  -6.190832831373225E1  -1.555484868502902E2  -7.220400064525301  -1.187306605500537E2  
 3.930001725000000E9    -3.699280040990134   3.019810515157632E1  -6.856706137700495E1  -9.586216000672008E1  -5.706086186250255E1  -1.137504643188761E2  -4.775969893359093   1.479035237431865E2  
 3.960001700000000E9    -3.492664667323003  -7.787367245738120E1  -6.045922694446428E1   9.719284796699205E1  -6.639474556820267E1  -9.928595991973188E1  -3.472688214079429   3.038382109232805E1  
 3.990001675000000E9    -3.618709655355199   1.754756204640420E2  -6.827879763718677E1   1.738076051120054E2  -6.695155841914719E1  -6.209826709047572E1  -3.886141462420230  -7.801561009281475E1  
 4.020001650000000E9    -4.163225022914504   5.132731611778564E1  -5.783879793264849E1   1.468761432812100E2  -6.068186884783788E1  -1.090242700738547E2  -7.222207856090912  -1.665495982271762E2  
 4.050001625000000E9    -3.223909167953132  -5.926352465978462E1  -5.840598494563593E1   8.724187037036485E1  -6.721929695620874E1   1.258925053397138E2  -9.966260934130725   7.409485772260338E1  
 4.080001600000000E9    -4.605702877525896  -1.737419472899420E2  -5.696436666403284E1  -1.221989544404565E2  -6.212688261598794E1  -1.376662473065916E2  -8.847449180899869  -1.822115196581531E1  
 4.110001575000000E9    -3.479665814014969   7.923974923339853E1  -6.826520229382611E1  -1.540275171818629E2  -6.315262635319373E1  -6.783054872095720E1  -9.766847373526366  -1.358923512340170E2  
 4.140001550000000E9    -2.966204144558737  -6.437980302142013  -5.559097247491753E1   2.007583437094743E1  -6.846867881226902E1   1.687543905440921E2  -4.151127332922248   1.013666326748348E2  
 4.170001525000000E9    -4.797093197758444  -1.225110153683264E2  -6.423507649365902E1   8.238377051011334E1  -6.193382785325095E1  -1.085067059787489E2  -2.990639178969641   2.958624171743454E-1  
 4.200001500000000E9    -2.987760517368559   1.210364889494328E2  -5.359600313249552E1  -3.214838857024992E1  -6.725002855593974E1  -1.232810220705906E2  -6.372844237922125  -1.109024162245208E2  
 4.230001475000000E9    -4.118584476876654   1.479716773977225E1  -7.457867434063932E1  -1.325038569419308E2  -6.676353199342584E1   2.683705488423109E1  -5.396493853503361   1.427015215629685E2  
 4.260001450000000E9    -3.623439401001322  -1.216470786763358E2  -6.660622878386616E1   1.717620049739363E2  -6.339963641496400E1   6.774533986678580E1  -6.737085025542420   6.397381139527730E1  
 4.290001425000000E9    -2.866820675715896   1.467430272095295E2  -5.375215623700933E1  -1.362996717024792E2  -6.488283900068915E1  -1.232938408877087E2  -9.566994330996469  -6.539655773993516E1  
 4.320001400000000E9    -4.281768344326923   4.218424123549195E1  -6.385789715835985E1   7.314038998616101E1  -6.216263321420576E1  -1.514765085183862E2  -4.508748723947650  -1.728466341912837E2  
 4.350001375000000E9    -2.506436162701352  -6.643663525355801E1  -5.315923498663144E1  -3.346977214897567E1  -5.845667849523103E1  -1.152255338961061E2  -4.427963916191392   7.990900364554358E1  
 4.380001350000000E9    -2.844891347448040  -1.609328836416032E2  -5.431840729778462E1   6.327767530964916E1  -5.849069631177559E1  -6.690868315866024E1  -4.235252619567432  -5.030936177641133E1  
 4.410001325000000E9    -4.315189554596913   6.349927869006497E1  -6.524152201460784E1  -8.735951085911857E1  -6.978408505243068E1   6.824267036324504E1  -2.580460662667293  -1.394100754541439E2  
 4.440001300000000E9    -1.880443225907025  -3.929829012035866E1  -5.890763678822072E1  -1.495034686351629E2  -6.361264648551156E1   1.027112278305498E2  -6.545925999778339   1.235194449491877E2  
 4.470001275000000E9    -5.318228145404881  -1.598987901975852E2  -6.203171245416618E1  -4.781618509368375E1  -6.004962044398688E1  -7.895939873691181E1  -5.783779986182365  -1.092494609557637  
 4.500001250000000E9    -3.032917003148409   9.000076386448106E1  -6.027768752346201E1   1.082699366009057E2  -5.707761619906253E1   5.338338346908607E1  -3.511074290370271  -9.129608553274152E1  
 4.530001225000000E9    -2.177429035509743   5.700325029114369  -6.036998442730540E1   4.668911428708874E1  -6.666715760321546E1   3.190829971596548E1  -5.446061909204687   1.476118432388158E2  
 4.560001200000000E9    -4.672601544561173  -1.171756472405459E2  -6.547862592405816E1  -6.206024952303582E1  -6.199005929298382E1  -1.151833626778629E2  -2.411381063295536   2.097483806959211E1  
 4.590001175000000E9    -2.398246141960173   1.385096169569682E2  -5.447814224096726E1   5.503716054637525  -7.154080606677353E1   1.164192151628091E2  -2.071246682735104  -7.744746558296454E1  
 4.620001150000000E9    -4.451870889178157   2.451815075883101E1  -6.792454255588935E1   1.294366888534602E2  -7.945929813684417E1   1.429598035937785E2  -4.952200442915063   1.681665819409503E2  
 4.650001125000000E9    -3.256877103981534  -1.009649420807111E2  -6.378085951127343E1  -6.708850364524623E1  -5.803601457028698E1  -1.400361082216334E2  -3.629812072826443   6.904816292876336E1  
 4.680001100000000E9    -3.394290758106596   1.605979748424296E2  -5.807554252503535E1  -9.671026723102369E1  -6.107098358796660E1   1.603166116763412E2  -3.785426632835158  -3.179347049223777E1  
 4.710001075000000E9    -4.920838257574801   4.330404781542287E1  -7.458356779499712E1   4.570979939935388  -6.447343235445685E1   1.681107381496624E2  -4.488203391646207  -1.520533158379171E2  
 4.740001050000000E9    -1.885609107777340  -5.295135724738878E1  -6.694410821693307E1   8.908531698693844E1  -6.340729574254701E1   8.681927207881728E1  -2.174925031401757   9.941799458308466E1  
 4.770001025000000E9    -4.803338240377295  -1.555669114846920E2  -6.784228360391440E1   2.311466998599737E1  -6.927375611043075E1  -4.835887475654788  -3.167318462569309  -1.587975461956591E1  
 4.800001000000000E9    -3.745877426314841   8.166381071187162E1  -5.917388863343217E1   3.492784848196453  -6.930627278280126E1   5.423060231035572E1  -3.698709698953427  -1.345394654923971E2  
 4.830000975000000E9    -2.935948252428049  -2.210439993260309E1  -7.992896835227889E1  -3.451775373203250E1  -6.739603498059097E1   1.236469287666015E2  -3.083668580216332   1.330269310009401E2  
 4.860000950000000E9    -6.460291620398023  -1.521509879735977E2  -7.270347618925446E1   7.997812034503797E1  -5.802841780995194E1  -1.137556152079318E2  -4.719994357411866   1.804794653971545E1  
 4.890000925000000E9    -3.336136391838879   1.089503202208846E2  -6.650267948868887E1   4.522083596095008E1  -5.998797352150931E1  -1.640053490344908E2  -3.580445433402868  -9.215350398157230E1  
 4.920000900000000E9    -4.434123009860962   8.172818192075642  -6.785588562863923E1   1.361489796516673E2  -6.159338717188166E1   1.695442440920631E2  -2.741185330542220   1.748976127662272E2  
 4.950000875000000E9    -4.518117222151191  -1.063973562372160E2  -6.482263370253457E1  -4.901803392899007E1  -5.916484045502362E1  -1.526597652570881E2  -3.882270330902850   5.013785391400400E1  
 4.980000850000000E9    -3.491990477818544   1.561036835090636E2  -5.963368211237292E1   3.312362856875623  -6.297931484504986E1  -1.044453066140788E2  -2.825673378817203  -5.983593418808638E1  
 5.010000825000000E9    -5.409429033956978   3.709764068207175E1  -5.838767752546555E1  -1.519413019020233E2  -6.083733505408095E1   1.395860372990887E2  -3.418371996568924  -1.666525523664242E2  
 5.040000800000000E9    -3.254408733912823  -7.662716507581858E1  -7.021323762117119E1   1.152072985879449E2  -6.070731051264200E1  -6.871331660815187E1  -4.443857023985303   8.181806712768014E1  
 5.070000775000000E9    -6.622928373729662   1.719199910251538E2  -5.965711116981881E1   1.178128591356747E1  -7.198516195531717E1  -8.570819425748073  -2.970515456704661  -1.992086528509582E1  
 5.100000750000000E9    -4.726942489080256   5.469482149713136E1  -5.868548715844050E1   8.972361833545907E1  -6.725253788375451E1  -1.189586315332124E1  -3.769238479404751  -1.313507345748670E2  
 5.130000725000000E9    -2.937171133430144  -3.903378227136118E1  -7.317615204345351E1  -1.533667634735306E2  -6.826449997920668E1  -1.065096537921361E2  -3.255277390779181   1.272970352277861E2  
 5.160000700000000E9    -6.539012724340161  -1.531172056260225E2  -6.433530541446605E1  -6.420421551677991E1  -6.675281434761916E1  -8.673712153037091E1  -3.056127545366397   1.226035638489435E1  
 5.190000675000000E9    -3.572680718850158   1.077261205713439E2  -7.466769868502509E1  -1.158008396734541E2  -6.764358927427487E1   8.049253296368852E1  -3.917069742732351  -1.073473188496672E2  
 5.220000650000000E9    -4.804465565824177  -2.278359998825661  -7.052233835564117E1  -1.466843233979346E2  -6.416461410267985E1   3.762686371723073E1  -3.187342818742335   1.511765057802404E2  
 5.250000625000000E9    -5.353186809863057  -1.287948637106445E2  -6.734778018089695E1  -1.364976837799071E2  -6.819885686866637E1  -1.758351715811393E2  -3.963840629009407   4.447325512425324E1  
 5.280000600000000E9    -5.238762258371640   1.279211646586310E2  -6.555199891302276E1  -2.472518437364462E1  -6.447945755018056E1  -1.038812293919240E2  -4.376118912431478  -6.938144525454187E1  
 5.310000575000000E9    -5.688900332461778   1.032225583812886E1  -8.089575199632786E1   1.337367271229768E2  -7.236987199332084E1   2.048189323597631E1  -2.660168510732314  -1.684112323675909E2  
 5.340000550000000E9    -3.048662219045774  -8.722555632793262E1  -6.339736127519427E1   8.371821458697485E1  -6.790337611947476E1  -1.204611325480709E2  -3.673999599569949   8.697948698571881E1  
 5.370000525000000E9    -5.954830909946907   1.765617565516758E2  -9.400549709582417E1   3.619269509398203  -6.213432130794747E1  -1.629098250237380E1  -4.038579854607946  -3.259427819559323E1  
 5.400000500000000E9    -4.681847140975913   5.756591364394534E1  -6.456127655384550E1   1.217033960648632E1  -6.670449067738625E1  -6.905412969176972E1  -2.593754283888076  -1.414559644463106E2  
 5.430000475000000E9    -3.791180847318213  -5.089979042980984E1  -7.364311498751519E1  -1.149831315227199E2  -6.335141758908582E1   1.590984018775947E2  -4.170100432736376   1.107890862079436E2  
 5.460000450000000E9    -7.543228772968839  -1.752289918492929E2  -6.479984143230338E1  -9.729751196390400E1  -6.481861338280787E1  -1.395533683829301E2  -3.173702337523991   2.914136671605665E-1  
 5.490000425000000E9    -3.947949055454128   7.435591731725377E1  -7.576050937070582E1  -1.520082768649904E2  -6.355761560431082E1  -1.008713051044727E2  -2.949771057179373  -1.093371389649744E2  
 5.520000400000000E9    -5.040837740816229  -3.102362145666746E1  -6.304746290490363E1   6.370672584184484E1  -6.587873456889922E1  -2.974609099403656E1  -4.169384501215570   1.498380410518077E2  
 5.550000375000000E9    -4.362808680579477  -1.354991710143849E2  -7.911812827326486E1  -5.953915138844202E1  -6.798581831479824E1  -1.600081476827083E2  -2.998952212360039   4.530059045216934E1  
 5.580000350000000E9    -3.956188472923738   1.337113344374126E2  -6.667760646081101E1  -1.131215369575285E2  -6.540845938215114E1   1.175299883757048E2  -3.738222168413829  -7.376620039875306E1  
 5.610000325000000E9    -5.057041758641741   1.733352193539643E1  -6.090991567075146E1   1.668948824496022E1  -6.149380605998305E1  -1.102680036795306E2  -3.571481769079170   1.776920300394294E2  
 5.640000300000000E9    -3.830756774993806  -1.004813843297689E2  -6.327039740024448E1   1.619373762264835E2  -5.783762479015698E1   1.095422173228001E2  -2.828292449296152   7.029757326571240E1  
 5.670000275000000E9    -7.000908504069097   1.431235125507583E2  -6.404130746769570E1  -9.956688608039324  -6.033027156506713E1  -4.434133623500323E1  -4.133146383891428  -4.372240102774806E1  
 5.700000250000000E9    -3.778111756616104   2.577611487941935E1  -6.214601667817222E1  -5.733696172817673E1  -7.285960759171344E1  -1.466990703287029E2  -2.592573347850787  -1.526955985308415E2  
 5.730000225000000E9    -3.413965811725337  -6.946865439538496E1  -6.305452778947412E1  -8.187874744527970E1  -6.371666744712208E1  -1.357752466922979E2  -2.811473073464481   1.100612726236181E2  
 5.760000200000000E9    -5.400101950275298  -1.737959330262528E2  -6.600144521718207E1   3.860712246489935E1  -6.241104044810908E1   2.409034377011045E1  -3.984721012809639   1.507222518496621  
 5.790000175000000E9    -3.181169842615434   8.355348372354629E1  -6.412680829756876E1  -7.226680447405495E1  -6.734962409297337E1  -8.335951545402635E1  -3.073295120031620  -1.182148327655311E2  
 5.820000150000000E9    -4.658988204491951  -2.713578432150354E1  -7.024609799806464E1  -1.545571163661414E2  -5.738876947730419E1  -1.491074681567087E2  -2.599019901658406   1.359391110300368E2  
 5.850000125000000E9    -4.776290886812529  -1.532069780533463E2  -6.544399142697964E1  -1.859359923586716E1  -6.215039908114403E1   1.667114587636556E2  -3.945909738612446   2.447386130931256E1  
 5.880000100000000E9    -5.013717977811533   9.874306569816739E1  -6.060097168995472E1  -1.275598388941896E2  -6.657983067042771E1   4.002403323059344E1  -2.996791915280752  -8.946318682788295E1  
 5.910000075000000E9    -4.480751026147471  -1.854440571309579E1  -6.467372095576239E1  -9.738956617100417  -6.112391140703262E1   1.238177403024339E1  -2.913871497249277   1.678093512662233E2  
 5.940000050000000E9    -2.836868441968498  -1.162708579142522E2  -6.140831498452513E1   1.453647699426588E2  -6.919716957760512E1   1.664376914206673E2  -3.206060543939827   6.296013524500316E1  
 5.970000025000000E9    -5.132003719889376   1.474331172599948E2  -6.115817582676441E1  -1.585102379518998E2  -7.019699622855312E1  -9.167264927981084E1  -3.081693943059632  -4.515872649735042E1  
 6.000000000000000E9    -3.427212824026980   3.176578144503840E1  -7.651861824213219E1  -1.290904576836835E2  -6.893326238447861E1  -7.396958088146597E1  -3.223177846181394  -1.622805169637297E2  
