#  HZ   S   DB   R     50.0 
! Rohde & Schwarz ZVL13 2Ports - Version 3.20 - 1303.6509k13 SN: 100953
! Date: 2024-10-21 06:11:50
! Data & Calibration Information:
! Trc1:S11(Cal Off) Trc4:S21(Cal Off) Trc2:S12(Cal Off) Trc3:S22(Cal Off)
! 
! 
! 
 5.000000000000000E3    -3.021375944378433E-2  -2.491291872665788E-1  -5.926199111286223E1  -1.797979040120579E2  -6.452718098650479E1   7.573085615511793E1  -3.105711016570026E1  -1.166971527789451E2  
 3.000497500000000E7    -3.395910318617906E-1  -1.115030457466552E2  -5.722199440946139E1  -8.881437123434527E1  -6.186547669105213E1  -1.051568719250090E2  -3.639007554682112E1  -7.973167850347690E1  
 6.000495000000000E7    -8.900844940430326E-1   1.367009985669548E2  -6.558470691947545E1  -1.000163695517359E2  -6.061626513935509E1  -2.986448993112863E1  -4.443606359663912E1   1.215465988280136E2  
 9.000492500000000E7    -1.307018518670915   2.684602502766588E1  -6.485171212574218E1  -1.544484226864842E2  -6.609817635418965E1   3.731990975240343  -3.125309387494638E1   9.965595382852898  
 1.200049000000000E8    -1.275711919531995  -7.922940595861456E1  -7.585369673911113E1  -1.744784319846251E2  -6.508104400751616E1  -1.059434068884646E2  -2.952776545830720E1  -6.633189233391570E1  
 1.500048750000000E8    -1.029541470072574   1.705984096256451E2  -5.863424217221247E1  -9.824533375650765E1  -6.711013151002449E1  -3.554350484443400E1  -3.396872400789839E1  -1.572925690708202E2  
 1.800048500000000E8    -7.160469980080336E-1   6.421206702495593E1  -5.551184641601179E1   1.282678063273881E2  -7.184286113261386E1  -6.348927904081351E1  -3.056544722234390E1   1.136204703859873E2  
 2.100048250000000E8    -5.894823391141193E-1  -4.755685796969458E1  -6.890031832292347E1  -1.029203700502109E2  -6.592262123896164E1  -8.033992765550221E1  -2.994224289425146E1   3.888274874976872E1  
 2.400048000000000E8    -1.011081349083993  -1.586382210213668E2  -6.000959967629932E1  -1.943138987616894E1  -6.603445126780099E1   1.346818179556666E2  -3.955257026295069E1   3.143090373983003E1  
 2.700047750000000E8    -1.608046959057909   9.048630575268908E1  -6.116395302040461E1   1.567591133555740E2  -5.630356404104288E1  -8.386571838349488E1  -3.755025570430641E1   7.499444090592179  
 3.000047500000000E8    -1.695304564715958  -2.071782479933668E1  -6.014262615089814E1  -1.500857186628492E2  -6.115348725830759E1  -5.492065226097840E1  -3.185674346233566E1  -8.713264011914342E1  
 3.300047250000000E8    -1.607080092763878  -1.244315367272627E2  -5.668885590583660E1   7.229378476015721E1  -6.122838143047978E1   7.425699398721196E1  -2.724779791298876E1  -1.434617141263361E2  
 3.600047000000000E8    -1.470435501810368   1.246383553464649E2  -7.449551738087730E1   2.365769388784081E1  -5.964439475034178E1   1.260523707824157E2  -2.566710584922198E1   1.771147378066209E2  
 3.900046750000000E8    -9.650462380225395E-1   1.684684957180706E1  -7.281170490033257E1   3.413405970918160E-1  -6.215712819234754E1   5.729257577410775E1  -3.076020082798219E1   1.028266741900855E2  
 4.200046500000000E8    -1.106441767362580  -9.157207261279314E1  -5.919598304097758E1  -8.446855577521397E1  -6.253574109448720E1  -2.450897606543672E1  -3.257271160048467E1  -2.893704857445703E1  
 4.500046250000000E8    -1.634756784062604   1.529038272592510E2  -6.103622881618575E1   1.407844894661898E2  -5.731436444757832E1  -1.476429954598785E2  -2.957043739271055E1  -7.117734805515242E1  
 4.800046000000000E8    -2.026279348844128   4.625089880516926E1  -6.831888291361852E1  -6.736137933059156E1  -6.307955471339368E1   1.249465422115408E2  -2.747284363096375E1  -5.311364603237090E1  
 5.100045750000000E8    -2.108541337911365  -6.551239891186060E1  -6.167923087626330E1  -3.564376290833761E1  -6.140801683554505E1   4.129931848309890E1  -2.621095059770359E1  -1.015657373387551E2  
 5.400045500000000E8    -1.757054953042514  -1.703001947422234E2  -5.645431034092697E1   1.725075039613592E2  -6.262099269054002E1  -1.591207312808832E2  -2.767586779546722E1  -1.720807221212765E2  
 5.700045250000000E8    -1.542203023472983   8.230972516628125E1  -7.019868955360923E1   4.398877958231926  -6.902708326891737E1   1.263479459885518E2  -2.604671373156441E1   9.039478964344156E1  
 6.000045000000000E8    -1.202812810471586  -2.796980563765004E1  -6.187809422102182E1  -1.535997391062989E2  -5.287419422175255E1  -4.958685743983845E1  -2.314801656930598E1   3.627497634255404E1  
 6.300044750000000E8    -1.612139337359682  -1.342241215666505E2  -6.099255980056970E1   1.096239699436450E2  -6.926966727984147E1  -3.488765148264267E1  -2.861439034513064E1  -4.454941153737754  
 6.600044500000000E8    -2.253456689651407   1.084758282432324E2  -5.777501552437229E1   1.472265888182491E2  -6.197703355579424E1  -3.104275297979575E1  -3.532766663803606E1  -1.133175502634482E2  
 6.900044250000000E8    -2.479592186458521   1.363703495563353E-1  -6.288971708463997E1   1.537384666038387E2  -5.538583672582554E1   1.338050007200355E2  -2.888850527128281E1  -1.423365696249482E2  
 7.200044000000000E8    -2.330778020123847  -1.085075932867713E2  -6.536715186953332E1  -1.775826792355736E2  -6.603974393239358E1   1.410744047505496E2  -2.390885970521990E1  -1.638136848615044E2  
 7.500043750000000E8    -1.880706317345139   1.429958499497484E2  -6.322520702574766E1  -7.302312954225185E1  -5.542149368509101E1  -1.237222614984494E2  -2.399607834557126E1   1.584016353019354E2  
 7.800043500000000E8    -1.698591940292432   4.046168502708080E1  -6.681283387306596E1   2.676887753986805  -5.868639967736453E1   1.456079405128184  -2.708643849622753E1   1.021781357336355E2  
 8.100043250000000E8    -1.433908836862468  -7.395812804043133E1  -6.906098896741509E1  -1.670192040664796E2  -6.793959030140677E1   7.298952156514847E1  -2.511965806618522E1  -1.129703522258656E1  
 8.400043000000000E8    -1.959800429005164   1.796051928595959E2  -5.764955987979389E1   8.628257186732505E1  -6.149327664520181E1  -1.110425918465531E2  -2.251954066983776E1  -6.832576335344423E1  
 8.700042750000000E8    -2.534331426570359   6.481213410826656E1  -6.549318810358520E1  -5.738364773648521  -6.181904466809156E1  -6.030639651300866E1  -2.329508781343490E1  -1.050538446139915E2  
 9.000042500000000E8    -2.587980078389074  -4.787926538086744E1  -5.933130317608233E1  -1.291423838441628E2  -6.095031695151993E1  -7.924457971539508E1  -2.553554475469803E1  -1.390948906979737E2  
 9.300042250000000E8    -2.413294638549507  -1.521288475300058E2  -6.259975084095147E1  -1.659673292642272E2  -5.915779688521878E1   5.252392166481125E1  -2.789852200431976E1   1.645901190109391E2  
 9.600042000000000E8    -1.936007937973529   9.988381022893391E1  -5.405811424081613E1   1.114901868660047E2  -7.058169345936756E1  -1.778470768752302E1  -2.374192629678580E1   8.362794199873169E1  
 9.900041750000000E8    -1.562672191290334  -3.547007874647057  -6.506118486418774E1   5.645231155458195E1  -6.427608736414443E1  -6.614477520028886E1  -2.095928449679052E1   3.094634434357398E1  
 1.020004150000000E9    -1.610345709500881  -1.159619431639777E2  -6.222551718130566E1   6.923673648314983E1  -6.045767780530342E1  -5.133664555245673E1  -2.342634787635853E1  -2.243049261524682E1  
 1.050004125000000E9    -2.248419815019167   1.317959076322551E2  -6.883281913278111E1  -1.359290452561292E2  -6.353495143419362E1   9.803778202886684E1  -2.558735959793336E1  -9.678911993042381E1  
 1.080004100000000E9    -2.789344588874803   2.271905624237202E1  -6.702149710194523E1   1.703818565079813E1  -6.005529098205477E1   1.598480204029330E2  -2.426342938088217E1  -1.634088971218499E2  
 1.110004075000000E9    -2.607294022052510  -9.349758644282123E1  -7.051355372116986E1  -1.245692294553281E2  -6.021942603088805E1  -1.671722885160391E2  -2.269170540449904E1   1.651498671357877E2  
 1.140004050000000E9    -2.658683563465991   1.619361661895928E2  -6.702743211058358E1   4.701914083944406E1  -5.679377123422566E1  -8.753973241042382E1  -2.310068626377132E1   1.208941695757553E2  
 1.170004025000000E9    -1.887241751430469   5.906251352907172E1  -6.289188476384073E1   1.414145315226496E1  -5.997949513264553E1  -8.240389468984766E1  -2.360447174357933E1   7.524227312683486E1  
 1.200004000000000E9    -1.778006873327662  -5.098721182055907E1  -5.835965410616954E1   1.692946525067447E2  -5.732653370398813E1  -1.062934765975841E2  -2.583159083979449E1   4.404262520761034  
 1.230003975000000E9    -1.819430757850701  -1.592933318649395E2  -5.628355196139013E1   1.583262302093976E2  -5.576217308349295E1  -1.073953013226659E2  -2.306285085925653E1  -7.375543429679895E1  
 1.260003950000000E9    -2.475572910720180   8.429578034704160E1  -5.390162935072600E1  -1.394550799984489E1  -7.790694455624032E1  -1.158247328410384E2  -2.207223743742903E1  -1.226137272874732E2  
 1.290003925000000E9    -3.162405979547105  -2.347749946227351E1  -6.031321500962889E1  -1.698939366116627E2  -5.972786259733348E1   8.634307193678313E1  -2.352526327976895E1  -1.533185488921212E2  
 1.320003900000000E9    -2.787275467505435  -1.348850922069367E2  -6.901319044200886E1   1.019295870673532E2  -6.297306453534427E1  -3.806600637241281E1  -2.414617005838530E1   1.669099850570086E2  
 1.350003875000000E9    -2.639118876785963   1.184518212564697E2  -5.338674597511631E1  -7.639146898691203E1  -5.781116518964873E1   7.872262641790664E1  -2.477276320530993E1   9.728417120972682E1  
 1.380003850000000E9    -1.930169539585614   1.731886395119862E1  -6.228104739582190E1   6.748153602522396E1  -5.638579497294612E1   3.324579137248324E1  -2.356410235227882E1   2.078706304093539E1  
 1.410003825000000E9    -1.987805001931041  -9.625122780431794E1  -5.405710874494863E1   2.235895889722985E1  -5.218871607033322E1   6.775486399800369E1  -2.218462251924412E1  -4.069038997901698E1  
 1.440003800000000E9    -2.480539151404685   1.538356112642188E2  -5.745979248766238E1   9.459971143646112E1  -5.622498657418735E1   1.669545345243603E2  -2.257286496050003E1  -9.459183986388075E1  
 1.470003775000000E9    -2.848234745994511   4.235775830910394E1  -5.979764883214639E1   1.715016020824241E2  -6.563938354428500E1   1.325485193672824E2  -2.493491717993779E1  -1.648681779608978E2  
 1.500003750000000E9    -3.645715607866813  -7.107716582383671E1  -6.581903488961393E1  -1.374531904605517E2  -6.608675894396346E1   5.580134229845829E1  -2.616182444765338E1   1.293557725350910E2  
 1.530003725000000E9    -2.675962877464720  -1.770619458751705E2  -5.598849684779198E1  -1.523685235983481E2  -5.954947620824082E1   1.614463280788183E2  -2.521735809214265E1   1.006354543660925E2  
 1.560003700000000E9    -2.860781666701504   7.575941613121002E1  -5.230152629817114E1  -1.150448393414369E2  -5.590391185909758E1  -1.632354847846760E2  -2.252688817504641E1   6.445770305096059E1  
 1.590003675000000E9    -2.085730761347485  -2.778402956123065E1  -5.909331244915691E1   1.716345207933506E2  -5.356439510310804E1  -7.620987409022048  -2.417644789792886E1   1.368171070158613E1  
 1.620003650000000E9    -2.064558509860247  -1.394157793776560E2  -6.856007811367977E1   1.386687812712710E2  -5.684587643845394E1   7.236827023112548E1  -2.563292847364915E1  -7.458332415776819E1  
 1.650003625000000E9    -2.945368059795854   1.069371488742466E2  -5.823751142068854E1  -5.837288031682770E1  -5.538460388788376E1   1.614815038193194E2  -2.206762019295673E1  -1.567331723285064E2  
 1.680003600000000E9    -2.927312357901073  -1.163344485404293  -6.182039691502304E1  -1.851367013693582E1  -5.972138761812487E1  -1.753542244429595E2  -2.151994183460317E1   1.620277208447339E2  
 1.710003575000000E9    -4.116524444438641  -1.145029955374455E2  -6.315107436265261E1  -4.156973843812595E1  -5.517870131413107E1   8.692076258631121E1  -2.451077909647460E1   1.432937309840443E2  
 1.740003550000000E9    -2.869889753843720   1.374094614487745E2  -5.773165919648280E1  -1.724543037628043E2  -5.727463167259226E1   1.789963611143202E1  -3.054649899982595E1   1.330887505839702E2  
 1.770003525000000E9    -2.418727491315213   3.581194101946217E1  -7.430121422034067E1   1.100130994415924E2  -5.233132523142114E1   1.751311049591754E2  -3.427461639441628E1   2.963328798393525E1  
 1.800003500000000E9    -2.345657522146007  -7.572322056319281E1  -5.214941028057192E1  -1.610305458181327E2  -5.488596444257567E1  -1.170929983391950E2  -2.399691168084786E1  -4.919104197085005E1  
 1.830003475000000E9    -1.803137678620944   1.762567911110749E2  -6.040965037476974E1  -1.468857318295975E2  -6.313677326327425E1   1.241443442429336E2  -2.027817480924387E1  -9.703337291824238E1  
 1.860003450000000E9    -3.575939147523583   6.257469616892998E1  -6.639565021436646E1  -2.302894078882078E1  -5.063935910040933E1   1.130234895205743E2  -2.465127772016617E1  -1.441602739615358E2  
 1.890003425000000E9    -3.164019984446562  -4.991180042459277E1  -5.573397919259908E1  -4.456652054129654E1  -6.203794915653904E1   4.510585965867220E1  -2.851716585950952E1   1.111763896663378E2  
 1.920003400000000E9    -3.830293173099651  -1.573628777839180E2  -5.140284458858869E1   6.498519502455919E1  -7.934263979131615E1   1.766186225549162E2  -2.336952728871432E1   5.167993466388191E1  
 1.950003375000000E9    -3.263010729465425   9.054801324651201E1  -6.001954199807484E1   1.623381030564717E2  -6.272661669981138E1  -1.295645477886353E1  -2.294611563321867E1   3.309310352703387E1  
 1.980003350000000E9    -2.098054110093562  -8.040628955193508  -7.681134192803127E1  -7.797105368560466E1  -5.799049735355518E1   6.650962429324075E1  -2.504689870494417E1   1.458440387698143E1  
 2.010003325000000E9    -2.744858487755638  -1.228320853568876E2  -7.542584278066528E1  -1.129274233029064E2  -5.991085995375999E1   7.826118983486262E1  -3.791914008081987E1  -4.568029069183925E1  
 2.040003300000000E9    -2.019299755714312   1.260133680457599E2  -6.005800573187791E1  -1.221906533857030E2  -5.784878574973142E1  -6.840660400696019E1  -2.444718881766939E1  -1.796856414853451E2  
 2.070003275000000E9    -3.456985635246234   2.096970417994513E1  -5.949783948295455E1   8.624659238089029E1  -6.754635311755020E1  -5.066498971791582E1  -2.074642590841681E1   1.458018801575757E2  
 2.100003250000000E9    -3.941166365277981  -1.002043291013182E2  -5.695217112257141E1   7.324550066313542E1  -6.094847067131513E1   1.633464794343732E2  -2.181911392701612E1   1.230193322241273E2  
 2.130003225000000E9    -3.257137868886493   1.612276058652765E2  -5.770378418948745E1  -3.961124906077477E1  -6.638285113323708E1   1.134059088450986E2  -2.727101328447230E1   1.086752877226702E2  
 2.160003200000000E9    -3.600158917242415   4.959432032297209E1  -5.757017461502425E1  -1.609705978574412E2  -5.438335645966352E1   1.500100838009832E2  -3.478995270655752E1  -8.341551350154882E1  
 2.190003175000000E9    -2.059803182801334  -5.727492783121704E1  -5.790006832871164E1  -1.465638968732901E2  -6.506063231059869E1  -1.574412957420833E2  -2.399666051774486E1  -9.131432847106797E1  
 2.220003150000000E9    -2.722363251730299  -1.622711108932696E2  -6.825601759198035E1  -1.034955803799036E2  -5.368594037299660E1  -1.049814490584568E2  -1.983133578432426E1  -1.118798096307123E2  
 2.250003125000000E9    -2.821533939629706   7.854229108065539E1  -6.281923897502505E1  -1.433265058006849E2  -5.151407722803745E1  -1.504126392424479E2  -2.326797752569069E1  -1.439857077199499E2  
 2.280003100000000E9    -3.217050135742773  -2.063817985767518E1  -6.553990747267676E1  -5.437187407536027E1  -6.896620098440532E1   5.845763197193241E1  -3.577861258332363E1   1.125754729555644E2  
 2.310003075000000E9    -4.790144930445390  -1.404520197419350E2  -5.501624519376066E1   1.368432319119314E2  -5.237213058307255E1  -3.211160119099031E1  -2.365351495626659E1  -6.621804328070630  
 2.340003050000000E9    -3.220591447352351   1.125665094057712E2  -5.508935578008259E1  -1.380662557015559E2  -6.172680080572835E1   6.425698262858278E1  -2.160173104787274E1  -1.442277150308195E1  
 2.370003025000000E9    -3.321841854020084   1.255236513709836E1  -5.803143619803899E1   3.229224207762918E1  -6.125895133411549E1   1.417289217973657E2  -2.351801959670005E1  -2.139067979084213E1  
 2.400003000000000E9    -2.670953296542388  -1.076572040593214E2  -6.169551600461318E1   1.238939699898593E2  -6.279943433734925E1  -6.317847341816108E1  -3.084013360469202E1  -1.691154848677839E1  
 2.430002975000000E9    -2.393310483537137   1.514050077632238E2  -5.877469508186382E1   1.029871425217447E1  -6.146579934336802E1   7.517633204598879E1  -3.006482790696451E1   1.457867569201844E2  
 2.460002950000000E9    -3.686167820872729   3.516489346287158E1  -5.471052316730186E1   4.842386972008897E1  -5.649684821633696E1  -1.485000247403955E2  -2.046940442247004E1   1.121734774975187E2  
 2.490002925000000E9    -3.619694049445469  -7.348881932855515E1  -5.601127006209813E1   5.239323927362226E1  -5.968797895331355E1   6.007467683765232E1  -1.939545799547656E1   8.345928319595851E1  
 2.520002900000000E9    -4.788886717726716  -1.765873925622936E2  -5.758059964683348E1   1.070686350718198E2  -5.144390807818148E1  -1.786471512754483E2  -2.500906654941838E1   6.861302791595314E1  
 2.550002875000000E9    -3.872739337407771   6.573254448782149E1  -5.201772516153690E1   1.439360671849204E2  -5.710842550485506E1   6.870563863297075E1  -3.288175707201140E1   1.693095182058646E2  
 2.580002850000000E9    -2.693748638754188  -3.129055068231883E1  -5.506658033701818E1   7.442126829583015E1  -6.512263199603109E1   5.939080724906767E1  -2.396058095081376E1  -1.513729431321432E2  
 2.610002825000000E9    -3.069342984298254  -1.493566099077749E2  -5.547597024126632E1   1.097768282861763E2  -5.610073931133700E1  -4.219203168577346E1  -2.005483018112695E1  -1.595627990499791E2  
 2.640002800000000E9    -2.566761942392172   1.007625487578476E2  -5.542186155437333E1   3.153149329006873E1  -6.230863710541236E1  -1.701655117250510E2  -1.806237959322154E1  -1.685743285284890E2  
 2.670002775000000E9    -3.782805777528055  -1.654489159958568  -5.285435981402404E1   1.181620961161966E2  -5.220412600895675E1  -8.633287087399395E1  -2.304827442610177E1   1.720842588060319E2  
 2.700002750000000E9    -4.936317631795853  -1.245471855567866E2  -6.666296099739452E1  -1.223661520372659E2  -5.729869703983858E1  -3.802530026685555E1  -3.541569827142462E1  -6.949048506001900E1  
 2.730002725000000E9    -4.106270018510691   1.385200097891002E2  -5.448208380579654E1  -1.970106837986410E1  -5.846910797371248E1   1.665189429778734E2  -2.035508904895767E1  -6.003251654345305E1  
 2.760002700000000E9    -4.400863264729375   2.699031507220665E1  -5.721548341312715E1  -1.769792722950093E2  -5.954798550402852E1   7.115010323707941E1  -1.856918146667663E1  -7.355119127853010E1  
 2.790002675000000E9    -3.189844142922240  -8.669547833933353E1  -5.391320620796280E1   3.132884103342373E1  -5.140801071728972E1  -5.112097618912173E1  -2.066363916619959E1  -8.387072067852436E1  
 2.820002650000000E9    -2.591251573605399   1.731891634143209E2  -6.668813417080224E1  -1.110794478761439E2  -5.559256751586646E1  -1.619383387329947E2  -2.767184696619100E1  -8.121764251361689E1  
 2.850002625000000E9    -3.833235712157426   5.321118785976942E1  -5.434281720368970E1  -4.617765525300383E1  -5.817137991986844E1  -2.570473701810000E1  -2.561992519043741E1   5.705888182473030E1  
 2.880002600000000E9    -3.573650389579332  -4.874279919652007E1  -5.505363437213558E1   8.700766933979402E1  -5.502629620725983E1   1.430147445723389E2  -1.828675058509705E1   4.013812375123965E1  
 2.910002575000000E9    -5.705974131716809  -1.606533391823955E2  -6.062620076663472E1   3.441076198075165E1  -5.706885872492773E1   8.858450625658462E1  -1.752046533146202E1   2.978741344511795E1  
 2.940002550000000E9    -4.660228493832809   8.519258187627987E1  -6.643654579037275E1   1.021527846848252E2  -5.695354014783656E1   7.943928911875732E1  -2.297508823051606E1   3.258715193702312E1  
 2.970002525000000E9    -3.458486673503453  -7.712908450772840  -5.696870505161682E1  -7.153263014364995E1  -5.272846458177236E1  -1.738400715572931E2  -2.457291003639631E1   1.101724685095318E2  
 3.000002500000000E9    -2.865020399261684  -1.241448875960224E2  -6.776234351111846E1   1.181699412743749E2  -6.375060499354820E1  -1.306829491956975E2  -1.866820113386894E1  -1.765129682077568E2  
 3.030002475000000E9    -2.231179008071182   1.366448506271761E2  -5.976441649063943E1   8.214266841323752  -6.404103582485021E1  -1.102005239236405E2  -2.037153435478961E1  -1.654167952997383E2  
 3.060002450000000E9    -3.472753217912889   2.276380019731171E1  -5.685577148429012E1   1.436171796653031E2  -5.556362252215407E1   1.131210324758087E2  -1.967520499532725E1  -1.685856038919303E2  
 3.090002425000000E9    -4.213481564836534  -9.166326475284114E1  -6.350279195699355E1  -1.321542260024710E2  -5.389971728846329E1   1.694893193637006E2  -3.911591380807636E1   1.673312699496156E2  
 3.120002400000000E9    -4.340378594300451   1.642707446008002E2  -6.419797375868359E1   1.039589795664019E2  -7.071485154691429E1   1.392343198512858E2  -1.817758637526913E1  -4.962971559734638E1  
 3.150002375000000E9    -3.738389625024345   5.065083963300741E1  -8.069857470746156E1  -1.439709358398364E2  -5.828998686448586E1   8.131849312498730E1  -2.086435569255077E1  -6.633849923227390E1  
 3.180002350000000E9    -3.330084920050076  -4.902806236490294E1  -5.732378506161731E1   8.784914063209514E1  -5.707128863187093E1   3.208235970389260E1  -2.350330499387552E1  -8.289543288732580E1  
 3.210002325000000E9    -2.964458396331124  -1.640775829228004E2  -6.342069827200589E1   8.853955599388918  -6.604158750778190E1   2.247923557570478E1  -2.970661943438245E1  -1.145825905934727E1  
 3.240002300000000E9    -3.331162665304673   8.980395904200159E1  -6.279281590201758E1  -1.145545225735502E2  -5.992264492539796E1  -3.759342150021934E1  -2.953098394296417E1   6.980915207200842E1  
 3.270002275000000E9    -3.788893748679117  -1.652748929231379E1  -5.354799434644593E1  -2.964244697029544E1  -7.068612275678190E1   6.849303440232583E1  -1.890787536198656E1   7.694619307646028E1  
 3.300002250000000E9    -5.318824143563524  -1.407207927898945E2  -5.120189280184175E1  -1.324305742668292E2  -6.236859745635494E1  -1.714488472227909E2  -1.848070583193620E1   5.187871770565448E1  
 3.330002225000000E9    -4.662784316467589   1.206850137925499E2  -6.916430476694143E1  -1.066585418998920E2  -6.102215762480560E1  -1.039249208335639E2  -2.842236252387233E1   3.407269329216953E1  
 3.360002200000000E9    -4.510730145455883   1.658542975392970E1  -5.931422714491765E1  -1.063199968488782E2  -6.068862599566344E1  -1.366557975998059E2  -2.776955604876167E1  -1.707335366733823E2  
 3.390002175000000E9    -3.767224478975728  -9.440487867458033E1  -5.511266331640180E1   3.061952174797478E1  -5.413305078999944E1   7.967187789812803E1  -2.298910966013332E1  -1.659615753691161E2  
 3.420002150000000E9    -2.831850705440480   1.598733769660028E2  -6.315040074633969E1  -5.135175643840984E1  -8.141921551102395E1   1.743939580394138E2  -1.786344801305384E1   1.781748594516115E2  
 3.450002125000000E9    -3.859846034498449   4.509404748285742E1  -6.584561250450538E1  -4.436523353068874E1  -5.692556969944066E1   5.761068652352228E1  -2.417889697039832E1   1.262623123392841E2  
 3.480002100000000E9    -4.539169383895877  -6.136465678110751E1  -6.290789474422104E1  -1.664119812639087E2  -5.683749626211310E1   5.225584030333749E1  -3.065607953295396E1  -3.510342092761213E1  
 3.510002075000000E9    -5.104256618089737   1.782338716075514E2  -6.298913457329005E1  -6.400204847245354E1  -6.078741775370824E1  -3.057719454567332E1  -3.120848010153895E1  -5.062061135181053E1  
 3.540002050000000E9    -4.793065752005425   8.046165198105652E1  -7.085046494925118E1   1.590000243235580E2  -6.393789283202677E1  -5.780883859305580E1  -2.016076984785364E1  -6.652494813890051E1  
 3.570002025000000E9    -3.789362446765496  -2.105217739255118E1  -6.022116549658442E1   9.016799994611593E1  -5.773404774896424E1   4.400441055869622E1  -2.341889572190898E1  -9.201207043396930E1  
 3.600002000000000E9    -4.055832098185097  -1.358543701168724E2  -5.671788183815475E1   4.986717503845189E1  -6.576657858882244E1   1.466212977714394E2  -2.369205384974314E1  -7.975976322456145E1  
 3.630001975000000E9    -3.320858781863290   1.184369752248538E2  -6.290080054605164E1  -6.101767846465682E1  -6.080537262288017E1  -7.901299135778262E1  -2.850038868044150E1   2.752932043436926E1  
 3.660001950000000E9    -3.634138740540378  -4.164501074117245E-1  -5.833679080662817E1  -5.986263080423878E1  -6.198465701289585E1  -1.254733832999524E1  -2.255278360451336E1   8.225435283527352E1  
 3.690001925000000E9    -5.168167230127733  -1.090105361573423E2  -5.646854736577271E1  -1.398732454212781E2  -5.942258988329482E1  -1.056461951672987E2  -1.871211368888030E1   4.106037573538096E1  
 3.720001900000000E9    -5.571387430859304   1.382916464088396E2  -6.187100534306139E1  -1.672546830385828E2  -5.639543364290158E1  -4.254191558967462E1  -2.180304645668512E1   3.253197060146614E1  
 3.750001875000000E9    -4.602565439996062   3.704844431695039E1  -5.764275787346195E1   7.136159526977838E1  -5.580278849092546E1   7.269824378395474E1  -2.559542462620001E1   1.568572110414149E2  
 3.780001850000000E9    -4.142509104356879  -5.995003580209842E1  -7.048948364016457E1  -1.261402823923854  -5.774449984248626E1  -1.284131806538544E2  -2.090820748643782E1   1.271475246243445E2  
 3.810001825000000E9    -4.183794489031565  -1.755471681867676E2  -6.189584975005273E1   1.601680654780062E1  -5.670059841682552E1  -2.754832104973121E1  -2.662397980079866E1   1.137776815392218E2  
 3.840001800000000E9    -3.624614946243101   7.617750218505229E1  -7.281575882015765E1  -1.108952644481037E1  -6.550448835319544E1  -1.294475092208959E2  -3.751888730943713E1  -1.625645180795392E2  
 3.870001775000000E9    -4.646149211578311  -3.856680160268692E1  -5.591203510143895E1  -5.684356064372626E1  -6.100610949571072E1  -6.101158341103658E1  -2.617611905922080E1   1.411854176313611E2  
 3.900001750000000E9    -5.357808610670759  -1.562866104008575E2  -6.022053413433935E1   1.170729692273342E1  -7.512537017059852E1  -2.943742427452966E1  -2.732884101223186E1   1.559731612167458E2  
 3.930001725000000E9    -4.928992467827923   1.017500432918124E2  -5.935594020672917E1   8.868811971935815  -5.708205390484480E1   6.318309936834708E1  -2.570914484138176E1  -1.069156025427953E2  
 3.960001700000000E9    -4.915996078650815  -4.635309684642861  -7.453787824199672E1   7.639493329180962E1  -6.441355208099709E1  -2.627884978126370E1  -1.830313900801464E1  -1.231324918968744E2  
 3.990001675000000E9    -3.818502867798961  -1.054299754589228E2  -6.068086622121129E1   3.008363816432783  -5.461432511442069E1  -7.483811441392243E1  -4.101999012522295E1   6.021019463643307E1  
 4.020001650000000E9    -4.680186729432684   1.436743893345865E2  -6.484879565932732E1  -1.558698652826383E2  -6.402493684900352E1   1.077616069086999E2  -2.561061891105782E1  -4.669005567685114E1  
 4.050001625000000E9    -3.697259552217855   2.783151730035569E1  -6.439905745000999E1  -2.129150537101758E1  -5.662491317966852E1  -7.220184954092474E1  -2.262418817924250E1  -1.215757489979517  
 4.080001600000000E9    -4.179169764010608  -7.847789818168710E1  -5.953642793974912E1  -1.075666361688928E2  -5.985529846490614E1  -2.383311209030422E1  -1.772861263681068E1   9.737464618515693  
 4.110001575000000E9    -6.069390362415325   1.559862129307707E2  -5.757412249777454E1   3.562172955288209E1  -6.769157811073555E1   1.111851586431232E2  -1.723342657433324E1  -1.410091754840890E1  
 4.140001550000000E9    -3.757917803030465   5.712367964154777E1  -6.333237708855265E1   7.959224190162303E1  -5.779589704475099E1   1.355827094619480E2  -2.734183564751572E1  -1.190270105772360E1  
 4.170001525000000E9    -5.133899857282651  -3.114368458288798E1  -7.307178280962211E1   1.407943676922846E2  -5.883420128436235E1  -3.867784323941652E1  -2.230839754094501E1   7.951639624564686E1  
 4.200001500000000E9    -4.840104643248607  -1.559441602848522E2  -5.585845875836800E1  -1.089988555786625E2  -5.745288456078686E1  -6.401791139214055  -2.015820277189713E1   8.293082568561239E1  
 4.230001475000000E9    -2.786679633647712   1.062131638662404E2  -6.020065721075405E1   1.041655940675177E2  -6.547118568863385E1  -7.390491501288305E1  -1.715620109704512E1   8.931555405324454E1  
 4.260001450000000E9    -4.889131647077361  -1.041760145852725E1  -5.857745514453285E1   1.317931152016016E2  -6.188430318184090E1   7.503693667870745E1  -2.235525205874697E1   9.871329855084214E1  
 4.290001425000000E9    -4.010928911310131  -1.366844604755825E2  -5.476021130415255E1  -9.917844495109625E1  -6.312811898225561E1  -1.612341845875195E2  -2.271844606640056E1   1.738564431351823E2  
 4.320001400000000E9    -4.636442267623179   1.314149923696857E2  -7.246426122261109E1   1.169517792788583E2  -5.838163203901804E1  -1.216658819002201E2  -1.832763594277675E1  -1.615918511756999E2  
 4.350001375000000E9    -4.921546761510190   5.640266432304152  -6.331227082274457E1   1.292166777665695E2  -5.600365025526516E1  -1.389663929781783E2  -1.413896297616318E1  -1.636713992411129E2  
 4.380001350000000E9    -2.763757580661155  -8.032109383814400E1  -5.752214566588598E1   1.752968473106725E2  -5.828859685206451E1   1.634691646607362E2  -2.011040472992480E1  -1.785780748308489E2  
 4.410001325000000E9    -4.859992126874348   1.693274677073960E2  -5.599004622918727E1   1.334172361833049E1  -5.895143939089635E1   1.166835473684971E2  -2.722476437603308E1  -1.629313036400365E2  
 4.440001300000000E9    -3.348366053651206   4.542226698430079E1  -6.179397122645776E1  -1.642465127313612E2  -7.172585471170886E1   1.583454154180592E2  -1.573918393208119E1  -9.207128139919944E1  
 4.470001275000000E9    -2.656807660243465  -5.156400413104687E1  -5.761786943572964E1   3.555101324087143E1  -5.871739053862439E1  -1.623748801228304E2  -1.621350508790656E1  -7.277048368400689E1  
 4.500001250000000E9    -6.277464703105122   1.747479284744445E2  -5.759911656138215E1   1.297043723122897E2  -6.576578018418167E1  -6.933683076473433E1  -1.687347324546867E1  -6.300644009498168E1  
 4.530001225000000E9    -3.243690864115000   7.792414045509725E1  -5.713323854299313E1  -8.936705497758049E1  -6.236417000971915E1   1.212995151104660E2  -1.748707541510764E1  -8.869194559093661E1  
 4.560001200000000E9    -4.943300859694630  -1.925474614038496E1  -6.086540449578700E1  -3.629126100204321E1  -5.913844744140444E1   3.744860848068667  -2.412687297512208E1  -9.570024614417454E1  
 4.590001175000000E9    -4.336936981958758  -1.417096137098521E2  -5.811509003316223E1  -1.007403556758132E2  -6.732139281806722E1   7.206843938131907E1  -2.022529671054389E1   4.087351033607759E1  
 4.620001150000000E9    -2.845045540773747   1.256117247382595E2  -6.454027715175477E1  -1.343244193972627E2  -6.525602466380838E1   7.521571975189885E1  -1.849480491798006E1   4.641712488160096  
 4.650001125000000E9    -5.001297974586206   2.915050622194883  -6.374077730286437E1  -5.337491722022768E-1  -7.216101804423340E1   5.851481419187381  -1.715974977325609E1   2.101524312892823E1  
 4.680001100000000E9    -3.259492090452631  -1.077703139027989E2  -6.005960058777789E1  -1.369104641007552E2  -6.367807438807638E1  -1.271233696248039E2  -2.692149851505766E1  -1.222400560551189E1  
 4.710001075000000E9    -5.960896451407924   1.495306204624898E2  -6.335382106989326E1   4.814476974819822E1  -6.205875284910760E1   4.723042600502534E1  -3.220623299964412E1   1.564446878032355E2  
 4.740001050000000E9    -4.837832863837342   2.808785320975495E1  -5.891996798632407E1   9.850398891810976E1  -5.624445474424510E1   1.477112858983320E2  -1.988470226046518E1   1.615675387273105E2  
 4.770001025000000E9    -3.381856946556211  -6.448329848703523E1  -6.111649514068681E1   7.770253296346405E1  -5.595937785363290E1  -4.255790680627281  -1.580197581242200E1   1.219422147244493E2  
 4.800001000000000E9    -6.711880799776761  -1.789799599085958E2  -6.249435925956315E1  -2.378658185384303E1  -6.051454107417688E1   8.873582714722083E1  -1.894861387659744E1   7.538033875532727E1  
 4.830000975000000E9    -3.528533533320174   7.314865250522885E1  -5.897276429108415E1  -1.585744096774970E2  -5.977412488488459E1   1.444945682134363E2  -3.648544265713163E1   1.766077231573110E2  
 4.860000950000000E9    -3.977177823045177  -2.914725487833959E1  -6.219314505661703E1   1.125307755249693E2  -6.398006781552042E1  -1.670203320218630E2  -1.901565914355937E1  -1.159142159580436E2  
 4.890000925000000E9    -5.884963478992236  -1.529742363315868E2  -6.269803177185686E1   8.572952753013006E1  -7.303627076870657E1  -1.354178898401361E2  -1.750308045295433E1  -1.303353257479994E2  
 4.920000900000000E9    -4.392077982299988   1.035555009017764E2  -5.870314886213445E1   9.118929873711927E1  -7.696899417968250E1   2.768076310387565E1  -1.800553418237948E1  -1.448305216574604E2  
 4.950000875000000E9    -6.329966435140251  -9.903526740169632  -5.596518243630130E1  -4.542119455467019E1  -6.410619325289559E1  -1.755153953479977E2  -1.666192797554707E1  -1.717743186473695E2  
 4.980000850000000E9    -4.443595875570751  -1.181762324896968E2  -6.971434939701733E1   1.093465927780629E2  -6.086512417979844E1   1.561706669272856E2  -2.907691316940988E1   1.040702049754474E2  
 5.010000825000000E9    -5.276072566180891   1.461083521315334E2  -6.755032721070496E1   3.772710804941983E1  -5.900171804049352E1   1.412182352516358E2  -2.060745321591694E1   1.781027185219111E1  
 5.040000800000000E9    -4.796475588785619   3.056713334099113E1  -7.183177248367808E1   1.757126401040344E2  -6.304972686216613E1   6.715441232120713E1  -1.937489705376198E1  -2.783183299688675E1  
 5.070000775000000E9    -3.044504263038374  -7.334371310614640E1  -7.462431604651012E1  -4.228345329086818E1  -6.821701016564066E1   1.568051120111207E2  -2.150918377808801E1  -5.705999527139761E1  
 5.100000750000000E9    -7.565725566551259   1.667957918390916E2  -6.173776301445577E1  -1.298131136204324E2  -7.151932870779123E1   5.420843234282370E1  -2.217837062800692E1  -1.179257470077792E2  
 5.130000725000000E9    -4.762166227776278   5.456463240871437E1  -6.864082497750948E1  -1.688393685468489E2  -6.727287460098668E1  -1.676457919100815E2  -2.465460803365325E1  -1.698589096806592E2  
 5.160000700000000E9    -5.241829024235649  -4.687262120215618E1  -7.571317315921873E1   1.238061323005359E2  -6.984598212288155E1  -1.751295754667412E2  -1.840558420934985E1   1.270910110819775E2  
 5.190000675000000E9    -6.690328314249936  -1.667679767175651E2  -6.588722772218759E1   6.080760217033578E1  -6.564445741997862E1  -4.795881818509923  -2.182763498553717E1   9.150647481321731E1  
 5.220000650000000E9    -3.737451935177447   1.019042372370571E2  -6.519792132891129E1  -7.826806613828235E1  -7.848618842933621E1  -1.418705060164753E2  -2.916407786773780E1  -1.302639950821787E1  
 5.250000625000000E9    -5.406753716228444  -7.346633809658890  -6.242183995712321E1   1.775639499276320E2  -6.236544622522529E1  -1.209983835285100E2  -2.435112122692510E1  -1.134559191849453E2  
 5.280000600000000E9    -4.589150583383173  -1.197177509415268E2  -8.005635215538716E1   1.624522161910773E2  -6.826407057475960E1  -1.696438167615568E2  -1.737183359862377E1  -1.343190638271177E2  
 5.310000575000000E9    -6.529932159520549   1.355956007592218E2  -7.022781245202135E1  -1.767718478932435E2  -7.275214955511676E1   3.403007770750428  -1.640002781185592E1  -1.635953315694003E2  
 5.340000550000000E9    -6.328933127865576   5.855031312871352  -7.438713527126656E1  -1.063412014121247E2  -6.893357223837180E1  -9.396046548550508E1  -1.805191231858752E1   1.715631730309751E2  
 5.370000525000000E9    -4.377133823929581  -8.982196794246065E1  -7.058424370203687E1   2.970045124340007E1  -6.826838345262419E1   5.992949774134512E1  -2.168536918103515E1   1.314677113401644E2  
 5.400000500000000E9    -7.663427655079962   1.664018190197988E2  -6.021216396676547E1  -6.728345939208651E1  -8.245295390351154E1  -1.308287826317180E2  -2.636282785337075E1   6.150959390641121  
 5.430000475000000E9    -3.808519631794681   5.954817549381008E1  -6.489162068745554E1   1.438852902649158E1  -6.567076389075912E1  -6.438029262233043E1  -2.038327484345915E1  -6.182234138664077E1  
 5.460000450000000E9    -3.627950503317969  -4.099018659505160E1  -6.442665355078600E1  -3.210206270759822E1  -6.347468072457561E1  -1.027153594594852E2  -2.014606607789183E1  -8.783762124429487E1  
 5.490000425000000E9    -6.789232184332513  -1.602783005611023E2  -6.071875151297454E1   1.037808426790549E1  -5.874754171722179E1  -5.143521728183580E1  -2.108117140451886E1  -1.223326718707027E2  
 5.520000400000000E9    -5.552675786028333   8.680410464708888E1  -7.574462550833660E1   6.316760237605725E1  -8.068965498464041E1   1.021139164369139E2  -2.066418143624592E1   1.662893775569091E2  
 5.550000375000000E9    -6.629930170192741  -2.892561493208288E1  -5.690470699707561E1  -1.988785634695385E1  -5.833442480327432E1  -6.832668630250200E1  -2.199735089468744E1   1.219556204741923E2  
 5.580000350000000E9    -4.592824972409372  -1.376017255171561E2  -6.768262627365159E1   1.372094962444737E2  -8.206462939329580E1  -7.849203890234588E1  -1.948386077624174E1   7.903193797772798E1  
 5.610000325000000E9    -5.263127681646803   1.290057578634105E2  -7.383886481799108E1   1.414604486822993E2  -7.449949659523387E1  -1.337186104599505E2  -2.111514422665143E1   2.484463359295228E1  
 5.640000300000000E9    -4.662996141288718   1.633602334715638E1  -6.265869338324748E1  -7.701346289221968E1  -6.370995300026400E1   1.275361453584447E2  -3.190720589071118E1  -1.048874970493281E2  
 5.670000275000000E9    -3.159463541877317  -8.507792588499078E1  -5.947593451343936E1  -1.224188260967882E2  -6.330685386471036E1  -8.228073619345142E1  -2.205531347594244E1  -1.595573717353716E2  
 5.700000250000000E9    -7.366868488043818   1.593274772336883E2  -7.447626041002980E1   1.468361333580265E2  -6.276870601253528E1  -6.066137885362730E1  -1.971973380808221E1   1.719450785620066E2  
 5.730000225000000E9    -5.024440048172266   3.494914908627640E1  -5.828760486850140E1  -6.803617367804851  -6.132438532179482E1  -1.302292727072563E2  -1.949566651713330E1   1.534667308609192E2  
 5.760000200000000E9    -5.659863626154850  -6.896732095888901E1  -7.055790123794191E1  -2.532913824812562E1  -5.840330016310930E1   3.396804374168688E1  -1.814844999093617E1   1.251650849883047E2  
 5.790000175000000E9    -5.228920532859894   1.776407800194058E2  -6.322821292231077E1  -6.230592013573562E1  -6.189308094360255E1  -1.765247691622836E2  -2.282385989203438E1   4.806105662367813E1  
 5.820000150000000E9    -3.486636825235359   8.484287599824540E1  -7.012263175633298E1   5.525458210898155E1  -6.231357755486637E1  -8.041608527113884E1  -2.420445979581602E1  -3.893570927559194E1  
 5.850000125000000E9    -4.199713618695510  -1.798569094872590E1  -8.089755997603707E1   6.535225615893415E1  -6.143344579262179E1  -1.769020179783711E2  -2.277633042381568E1  -9.464804845705267E1  
 5.880000100000000E9    -3.683964088482512  -1.330623956211812E2  -6.388219454811676E1   2.373866407915098  -6.333400782764148E1   1.370318433453500E2  -2.492364625548586E1  -1.443921968150949E2  
 5.910000075000000E9    -5.961493884339794   1.206268507221917E2  -6.596854641566387E1   1.627533795363886E1  -5.846370109476445E1   6.299880520176568E1  -1.993938033570699E1   1.670102005797488E2  
 5.940000050000000E9    -5.606093518104122  -1.454568054353243E1  -6.567352660856564E1   6.284268484697336E1  -6.650033468176321E1  -3.481150057623684E1  -2.016778919446040E1   1.278822399306292E2  
 5.970000025000000E9    -4.191183977582841  -1.124260173676602E2  -6.492224103051659E1   3.274886843161976E1  -6.854741355159973E1  -7.848022118368141E1  -1.941001951481855E1   7.355788681467649E1  
 6.000000000000000E9    -6.081375322887425   1.392819599953483E2  -7.293033300826707E1  -7.197245272506555E1  -7.554127103465326E1  -3.187964462403400E1  -2.320913010903947E1   2.166761177661513E1  
