#  HZ   S   DB   R     50.0 
! Rohde & Schwarz ZVL13 2Ports - Version 3.20 - 1303.6509k13 SN: 100953
! Date: 2024-10-21 06:07:21
! Data & Calibration Information:
! Trc1:S11(Cal Off) Trc4:S21(Cal Off) Trc2:S12(Cal Off) Trc3:S22(Cal Off)
! 
! 
! 
 5.000000000000000E3    -6.326579373352280E-2  -9.526165886485088E-2  -5.951926160099064E1   1.509644973823949E2  -6.262635634113907E1   7.023063156809626E1  -7.590868483357116E-2  -4.832406060903135E-1  
 3.000497500000000E7    -5.308107672486119E-1  -1.109364720092052E2  -6.312170913887309E1   8.348506464619453E1  -5.595215090248355E1  -1.312483752377505E2  -2.166837433074418E-1  -1.116484288980775E2  
 6.000495000000000E7    -1.236807736989901   1.373051795487191E2  -6.425509236113335E1  -1.203159277190464E2  -6.245904553777093E1  -6.251752236310236E1  -4.450947903020247E-1   1.375227616986341E2  
 9.000492500000000E7    -1.806525214503312   2.795629347838524E1  -6.678314792899707E1   6.985444148469016E1  -6.399856369578660E1  -1.178603282864282E2  -5.355330660185530E-1   2.625855962867420E1  
 1.200049000000000E8    -1.755404203303183  -7.857771832750690E1  -5.736231770406064E1   8.292019957275841E1  -5.858956839864288E1  -1.261438622545710E2  -5.383289169446811E-1  -8.052084506834041E1  
 1.500048750000000E8    -1.332053581878732   1.709600348346800E2  -6.282665697455180E1  -1.325139204585367E2  -6.615093012783679E1   1.202149089852557E2  -6.313778338541787E-1   1.709017188877494E2  
 1.800048500000000E8    -7.670057586928040E-1   6.357124977518218E1  -6.193320820786975E1  -1.082369609618841E2  -6.201089012142776E1  -1.658342297304742E2  -6.334704295607301E-1   6.201536915673895E1  
 2.100048250000000E8    -5.551079734943379E-1  -4.740186880938893E1  -6.706048545687342E1  -1.469074314298179E2  -5.993291412609931E1  -5.570796637328170E1  -6.590169424288308E-1  -4.750388182602772E1  
 2.400048000000000E8    -1.102961075974045  -1.581195550277745E2  -5.635447112222339E1  -1.491803265543819E2  -6.412650606371273E1  -1.489445446021513E1  -7.758210862935354E-1  -1.615563881951994E2  
 2.700047750000000E8    -1.973751154447096   9.284166363298925E1  -5.713104377818497E1  -1.676938733449169E2  -6.210026144488155E1  -8.814315737714529E1  -9.550097311192933E-1   8.848759066740311E1  
 3.000047500000000E8    -2.336016386002275  -1.792402656917991E1  -6.590438654208508E1  -2.065803661806842E-1  -6.135192375821249E1  -3.447711834642829E1  -9.739330030142642E-1  -2.215777897229788E1  
 3.300047250000000E8    -2.012906862551348  -1.232776919747642E2  -7.231601564751023E1  -6.974417857392852E1  -5.287256569431299E1   1.015660992009484E2  -9.032221087308674E-1  -1.291840557404731E2  
 3.600047000000000E8    -1.578561391041407   1.252500505559858E2  -6.361398729444156E1  -1.379044835098531E2  -6.160593597553084E1   3.872758698260294E1  -9.717861747605656E-1   1.258764383221655E2  
 3.900046750000000E8    -1.045296681056371   1.727300346034241E1  -5.736331565697575E1  -6.602074289881936  -5.798808928893055E1  -6.316304790081631E1  -1.007787861346394   1.410065305673104E1  
 4.200046500000000E8    -1.046024403936001  -9.161998420761188E1  -6.211287305200914E1  -8.812360678069096E1  -6.666840288716250E1   1.738035372296525E2  -1.017400660887646  -9.556913208028675E1  
 4.500046250000000E8    -1.778472866418380   1.545740201021917E2  -5.794034556033606E1  -1.178784497163746E2  -5.857877445342579E1   8.327136268796399E1  -1.288716782777883   1.537964572540211E2  
 4.800046000000000E8    -2.347901054948353   4.929020760307494E1  -6.136840678207258E1   4.579731388729469E1  -5.939701168256047E1   1.478707610956402E2  -1.385105086602200   3.801824658558591E1  
 5.100045750000000E8    -2.575184486265684  -6.247999755295921E1  -7.224897798124745E1  -1.460804325461020E2  -6.763765579314922E1   9.794863486152586E1  -1.105994476799396  -6.777495055162834E1  
 5.400045500000000E8    -1.994168644734483  -1.682180404834309E2  -5.434906321766916E1  -1.429793735114947E2  -6.186775686685351E1   1.381582261751155E1  -1.232433763805366  -1.761936826811768E2  
 5.700045250000000E8    -1.697304369761478   8.321843722636996E1  -6.315303758166171E1  -1.669804275202807E1  -6.827792010322682E1   1.723263392305177E2  -1.250138439711160   7.801983590460820E1  
 6.000045000000000E8    -1.209830305030174  -2.801592976813642E1  -6.189207335230862E1   2.372349473802136E1  -6.079552306067730E1  -1.351293464192240E2  -1.200116367698961  -2.796735354733692E1  
 6.300044750000000E8    -1.559701382213850  -1.336189682251600E2  -6.087873770016392E1   1.191370670655044E2  -5.865607519527536E1   9.665488725300865E1  -1.291522862603409  -1.414417327587054E2  
 6.600044500000000E8    -2.304607209544842   1.113453920881701E2  -5.825389063876570E1   8.377555695880353E1  -5.594916437072629E1   2.840132639795182E1  -1.536601819977413   1.071398579175127E2  
 6.900044250000000E8    -2.499155074221356   3.221152582383007  -6.364448807805253E1   1.114230335742428E2  -6.039259438294710E1   4.104679771626626E1  -1.525153128284776  -5.732667899525080  
 7.200044000000000E8    -2.718742752286614  -1.050760823976081E2  -6.210910892952101E1   6.967567157221316E1  -6.153665650623726E1   2.692936156292044E1  -1.480942555503074  -1.184985194485821E2  
 7.500043750000000E8    -2.136319736557971   1.461679429139411E2  -5.966060267898084E1  -1.324239757599357E1  -7.240161150333586E1   7.810306978420240E1  -1.446808539032983   1.414495994255824E2  
 7.800043500000000E8    -1.741205278834899   4.063462394995322E1  -6.205166286013495E1  -1.284481894215416E1  -6.007126346387805E1   1.532379306043322E2  -1.248164960012783   3.476901476718650E1  
 8.100043250000000E8    -1.354296140908128  -7.336335727794666E1  -6.037445530165397E1   1.465812957954273E2  -7.847985076203437E1   7.249843415703231E1  -1.406476805056250  -7.677062030811474E1  
 8.400043000000000E8    -1.869899361550823   1.799458592893370E2  -5.724292396638673E1  -1.629712404292972E2  -6.082011879431635E1  -4.488905547077753E1  -1.561009963888597   1.762815135481162E2  
 8.700042750000000E8    -2.718721238506102   6.961147731950675E1  -6.088120367981341E1  -1.577688728621443E2  -5.619665751737849E1  -4.877311009578381E1  -1.702038396188660   5.590171040529493E1  
 9.000042500000000E8    -2.879789629699798  -4.342066317337697E1  -7.049680091576214E1  -1.465821976589268E2  -6.602498341932197E1  -1.538640513631115E2  -1.618781393980563  -5.544734250956756E1  
 9.300042250000000E8    -2.763923456638277  -1.476641840999207E2  -6.325247435183866E1  -8.258195937389131E1  -6.149104251378385E1   8.180440477941607  -1.415719940826202  -1.611445879496593E2  
 9.600042000000000E8    -1.892410865202331   1.015358721365393E2  -5.464055523738379E1   3.435099486126799E1  -6.411380310798266E1  -1.546236045904942E2  -1.393549775151403   9.071174274567905E1  
 9.900041750000000E8    -1.532774067875268  -2.873409821418526  -6.991215932175440E1   1.649593376108602E2  -5.389474106387061E1  -5.197165087384632E1  -1.376750017665666  -1.093931362631926E1  
 1.020004150000000E9    -1.465264668258673  -1.148888506908304E2  -5.815523593744807E1   2.610005382372599E1  -5.758517475159964E1  -3.111435614358565E1  -1.550955951805037  -1.194534791643972E2  
 1.050004125000000E9    -2.170111998266412   1.341355576744195E2  -5.233622411274831E1   4.057429593127731E1  -5.680465403079582E1  -1.241258477325660E2  -1.753154800195481   1.251514643757039E2  
 1.080004100000000E9    -2.763476453993242   2.806749080499123E1  -6.147921775628779E1  -7.312418698544498E1  -7.725862126700477E1  -1.670698063800148E2  -1.937957674964913   1.270465328711541E1  
 1.110004075000000E9    -2.740901458954645  -8.772999971889995E1  -6.207228954025469E1   1.962467142575500E1  -6.323540914727897E1  -2.412670947306506E1  -1.612172779673850  -1.046447597181494E2  
 1.140004050000000E9    -2.496047049087432   1.669806163588548E2  -6.019513708690371E1  -1.640309194642751E2  -6.167517701424327E1   1.471905770557655E2  -1.606854116444051   1.508542710653241E2  
 1.170004025000000E9    -1.929127621762233   6.076409017742038E1  -6.936713193010047E1  -3.297425696200241E1  -6.544765585964268E1  -5.408225339380171E1  -1.474010133789135   5.031162161844284E1  
 1.200004000000000E9    -1.732450215165447  -4.973088338417183E1  -5.184396187816166E1  -1.523098215110832E2  -5.414282907475671E1  -1.593941945872269E2  -1.607248075319751  -6.023284510570636E1  
 1.230003975000000E9    -1.795535379147599  -1.582293631100589E2  -5.900512477670735E1   1.219382801462016E2  -6.065284835102568E1  -4.903572974043912E1  -1.748877762216769  -1.664458346553334E2  
 1.260003950000000E9    -2.340335868732463   8.764929334932793E1  -4.928281623220143E1   7.712660364558721E1  -6.108526711922553E1   1.318248333086988E2  -1.810941754709531   7.915519165433206E1  
 1.290003925000000E9    -3.065524707097935  -1.813080444337838E1  -6.259623749852303E1   5.596833445615080E1  -6.520034639368026E1   1.799225028695669E2  -2.015946531222458  -4.102992819755652E1  
 1.320003900000000E9    -2.756224445441116  -1.293704297509552E2  -6.528201280858684E1   1.606166650634839E2  -6.151672187378217E1  -1.113342972037069E2  -1.706720288925355  -1.468691339987128E2  
 1.350003875000000E9    -2.734264709864316   1.219187544285301E2  -5.997512790602987E1  -6.286676693905123E1  -6.150883201311575E1   1.144416407322288E2  -1.592954856364687   1.050583193925564E2  
 1.380003850000000E9    -1.839120276156046   1.897211288715146E1  -5.407669145829674E1  -1.472002014856830E2  -6.133042527799483E1   1.019638132257877E2  -2.046560123009605   1.107687901780688  
 1.410003825000000E9    -1.961418003093445  -9.579204222862636E1  -7.128104263775521E1  -2.172605574442932E1  -6.150439022622348E1  -1.541241069957011E2  -1.557998798068722  -1.003911880454994E2  
 1.440003800000000E9    -2.488303619990444   1.561234069085998E2  -6.369857808624266E1  -1.286627759432575E2  -5.137086437501933E1   4.495163418539949E1  -1.970939968669320   1.461171479413473E2  
 1.470003775000000E9    -2.319046788253657   4.692479920187472E1  -5.875998560013067E1   1.305161336493436E2  -6.604481214441327E1   1.135524123840144E2  -2.164632288129331   3.357235252179475E1  
 1.500003750000000E9    -3.429115631757626  -6.511114494959602E1  -5.906369955097606E1  -1.511184771286919E2  -6.617536991622895E1   7.213859220232331E1  -1.737178600163585  -8.476460018459792E1  
 1.530003725000000E9    -2.430757948366151  -1.706617633696381E2  -6.563500410057925E1   1.651489494269306E1  -5.505075426887348E1  -1.189913872054495E2  -2.313091967805855   1.642645087021911E2  
 1.560003700000000E9    -2.661984703784335   7.928894351938500E1  -5.732256680613835E1   1.197664959591663E2  -9.440704134156896E1   1.356439838025736E2  -1.731876883044720   6.363032161266612E1  
 1.590003675000000E9    -2.058618355037657  -2.700036534621539E1  -5.974154969417850E1  -1.459444164698004E2  -5.602525048141138E1  -5.511957837723297  -1.799993754837523  -4.324960263225489E1  
 1.620003650000000E9    -1.739777917712928  -1.388807977797910E2  -5.961645434013711E1   1.229184931555229E2  -5.914408499914388E1  -4.401945311270957E1  -2.283732664204515  -1.501731470871038E2  
 1.650003625000000E9    -2.734161213020247   1.089881285719334E2  -6.590037684234619E1  -8.663885945082477E1  -5.463994774933650E1  -1.416510689685069E2  -1.756253190256377   1.026864982617260E2  
 1.680003600000000E9    -2.480124729981283   4.777666922985881  -5.746793577349052E1  -1.346341767773603E2  -6.128734558935408E1   1.716739662807614E2  -2.446073621052082  -1.706077171879709E1  
 1.710003575000000E9    -3.663855520356517  -1.077751406013896E2  -5.918890003268312E1   1.417369186915818E2  -6.005175764440557E1  -1.054031490787356E2  -2.103747942288793  -1.300091769976799E2  
 1.740003550000000E9    -2.713798463341352   1.434335058020767E2  -5.587167698635907E1   1.488739446450807E2  -6.554457686123057E1   7.049118786209364E1  -1.730244094902488   1.226521308674192E2  
 1.770003525000000E9    -2.210862429246019   3.882976488221857E1  -5.936684116102866E1   8.656115303225565E1  -5.259415930047946E1  -5.283411617651770E1  -2.295780230860952   1.468629567128345E1  
 1.800003500000000E9    -2.450055206060274  -7.575565655268960E1  -5.807658532333557E1  -1.696735983458794E2  -5.996265265527450E1  -1.505642870167897E2  -1.621875365496837  -8.730982931095774E1  
 1.830003475000000E9    -1.593427366290060   1.776297635236585E2  -6.886671588001505E1  -6.381010656103102E1  -5.470711366750420E1  -7.209889866422036E1  -2.000097060828015   1.646773352518939E2  
 1.860003450000000E9    -2.973943473911443   6.697564150004983E1  -5.590557480990116E1  -1.135639477382044E1  -6.377992865396226E1  -4.744404273247668E1  -2.278562446614842   4.957415890995113E1  
 1.890003425000000E9    -2.651901557946786  -4.289286215662470E1  -6.361005647237355E1  -6.581423866881092E1  -7.686336052796177E1  -5.585742120830680E1  -1.873010364767651  -6.295211235266047E1  
 1.920003400000000E9    -3.092883654615922  -1.486502354027072E2  -5.379837187519772E1   9.958286914052691E1  -5.544036362509774E1  -7.222786598355150E1  -2.439330592650196  -1.796774398422324E2  
 1.950003375000000E9    -3.083203486726890   9.737840098440070E1  -6.719465627360589E1  -1.057885859617478E2  -7.423661274351200E1  -5.894716767080760E1  -1.944901816702846   7.388463051207418E1  
 1.980003350000000E9    -1.820003343182238  -6.130500858061091  -5.918678064304963E1  -1.479671788332885E2  -5.379631783934737E1  -1.382698719843839E2  -1.885016917428962  -2.899249542403664E1  
 2.010003325000000E9    -2.747952905801419  -1.218292863154919E2  -5.190207793447930E1   1.038266023214052E2  -5.960359190460664E1  -3.057160249532569E1  -2.553749830898095  -1.398404383440845E2  
 2.040003300000000E9    -1.836324719830149   1.278316232421547E2  -5.450190732241844E1   2.584886677565520E1  -6.807449924094189E1  -1.014490933098092E2  -1.813139998078605   1.163091468481510E2  
 2.070003275000000E9    -2.690216961481279   2.510547646435911E1  -6.645846931271838E1  -1.455389396594865E1  -5.531595360944040E1   3.398937806467679E1  -2.416949265909093   4.648718589440219  
 2.100003250000000E9    -3.132517348208960  -9.208857061017122E1  -5.587284423714796E1  -3.806706304364021E1  -6.090811003479389E1  -2.931920720888888E1  -2.538707058423603  -1.169629351563699E2  
 2.130003225000000E9    -2.567847438836293   1.676732237208882E2  -5.910518868974819E1  -1.489517046961949E2  -6.439965091739846E1   1.311702496484469E1  -1.768603612654490   1.379039119899209E2  
 2.160003200000000E9    -3.391144737330865   5.496830472736588E1  -6.089375475954189E1  -1.305806356478407E2  -6.052904445601421E1  -1.251531760056328E2  -2.630316014768988   2.765204289780100E1  
 2.190003175000000E9    -2.012959250494944  -5.552816956059804E1  -7.105831511156627E1   2.232889283998290E1  -6.447498429556130E1   1.264990646483130E2  -1.991391143291403  -7.936079289154608E1  
 2.220003150000000E9    -2.509789853198123  -1.616287426391006E2  -6.070143494771831E1  -1.163906837832314E2  -5.967660724666592E1   2.336282894904324E1  -1.987972336111642  -1.779174888256638E2  
 2.250003125000000E9    -2.315093488894006   8.001855382064923E1  -6.464798900596978E1  -2.471288713085123E1  -5.664297487528744E1   1.206040622141920E2  -2.873709460877435   6.717849618040545E1  
 2.280003100000000E9    -2.315703462144046  -1.656936885687784E1  -5.514695160906248E1  -1.121887157381687E2  -5.722581885416749E1   9.756212121156001E1  -2.083135374322010  -4.528150021770070E1  
 2.310003075000000E9    -3.824595815903117  -1.318117626349317E2  -5.564147873741516E1  -1.658011134336137E2  -6.378291285459236E1   1.867351266967033E1  -2.605078005144262  -1.563626069356410E2  
 2.340003050000000E9    -2.495687328228053   1.185862160098976E2  -5.329781597971785E1   1.022511403541395E2  -6.515900712404206E1  -1.026066712753064E2  -2.647454221255086   8.456000672143433E1  
 2.370003025000000E9    -2.871834142005664   1.583492282160467E1  -5.990095178076712E1  -1.221255710455708E2  -6.382066292414274E1   1.239837849747561E2  -1.954398037212332  -1.624805749684307E1  
 2.400003000000000E9    -2.464466156319214  -1.065063340071485E2  -5.653849261517962E1  -4.858333787858161E1  -5.821383768825430E1  -1.105838511624343E2  -2.859947803195822  -1.235271134727136E2  
 2.430002975000000E9    -2.133185560899206   1.521865802287556E2  -5.941734701756136E1   1.305661649374332E2  -5.888757197207165E1   9.552589657543413E1  -2.357243717180964   1.270338059443917E2  
 2.460002950000000E9    -3.112631073729146   3.852012999079030E1  -8.147163372443424E1   3.900815012263422E1  -6.137912413307214E1  -1.787334004542443E2  -2.284545543219587   2.570648602431320E1  
 2.490002925000000E9    -2.606368076447872  -6.842787870434826E1  -5.164537015229795E1  -4.734168502809535E1  -6.639653612120964E1  -1.354316243977491E2  -3.218233105869656  -9.604057097462467E1  
 2.520002900000000E9    -3.444971453781324  -1.697777423678067E2  -5.572320347249554E1   1.484350387032808E2  -5.479773599483669E1   2.897180054499580  -2.420977085359355   1.500169182106603E2  
 2.550002875000000E9    -3.082902207023754   7.105980268467047E1  -6.619572234017197E1   1.098557579074388E2  -5.720017222006162E1   8.390862534003026E1  -2.576396181959926   4.510501472976938E1  
 2.580002850000000E9    -2.351771944042010  -2.971099961161275E1  -5.750183529909663E1   3.189618586242178E1  -5.597028419005555E1   4.499662798366747E1  -3.014764815111231  -7.201653057051493E1  
 2.610002825000000E9    -2.863770126444158  -1.480067485603481E2  -6.962318267884426E1   1.243477926886446E1  -5.675144687514157E1  -1.480845515320195E2  -2.091963629451897  -1.684619152157699E2  
 2.640002800000000E9    -2.259912009483444   1.029087334629493E2  -5.120038408791565E1  -4.782088974006904  -5.297257336968796E1   1.347495843341346E2  -2.810716205439018   9.088262880599554E1  
 2.670002775000000E9    -2.738005099103447   1.535974502891244  -5.250555564101879E1   1.391383261627975E2  -5.658518098252579E1  -4.735966163919256E1  -3.254992888042907  -3.445713500174762E1  
 2.700002750000000E9    -3.439209952695260  -1.196894243793954E2  -5.494858163311279E1  -2.365095264350657E1  -5.779740403932742E1   1.352366765033399E2  -2.280575409070105  -1.400888440557729E2  
 2.730002725000000E9    -2.805512606084687   1.439398855671651E2  -5.269024916844143E1   9.684574266344835E1  -5.885110166110393E1  -3.795752716732397  -3.634609960926331   1.026720173843556E2  
 2.760002700000000E9    -3.461471074055968   3.123782601302623E1  -5.846751198210771E1   1.625497834813744E2  -5.713604938792020E1  -3.714105999308813E1  -2.793195193125228  -1.281216091092494E1  
 2.790002675000000E9    -2.779902000996176  -8.404212826193100E1  -5.709438707647539E1  -2.196259239168827E1  -6.088651313825672E1  -1.043906009276069E2  -2.270511974953450  -1.069278758990531E2  
 2.820002650000000E9    -2.401193564455761   1.736128404334042E2  -5.799460368937032E1   7.774092658530518E1  -5.603956396899881E1  -6.556089748711741  -3.629696528209890   1.420742168056746E2  
 2.850002625000000E9    -3.252181018762266   5.468072096601293E1  -6.171898640133948E1  -1.405627192829430E2  -6.398835355536378E1   5.941335054949085E1  -2.519381944026289   3.630664450652527E1  
 2.880002600000000E9    -2.383904860081078  -4.601021458809068E1  -6.518270669695748E1  -3.382905866738685E1  -5.484836141581885E1  -1.657294061960654E2  -3.101859709203396  -6.846343885603903E1  
 2.910002575000000E9    -3.960203478170765  -1.568687907515942E2  -5.398964015920392E1   1.014017893711422E2  -5.449248414900959E1   1.671660182018408E2  -4.106491732728368   1.615492771752791E2  
 2.940002550000000E9    -3.293234294398454   9.056799083203298E1  -5.507314086873883E1   1.309273628767642E2  -6.062961952030374E1  -1.456443454841095E2  -2.268448634076603   5.893155185644881E1  
 2.970002525000000E9    -2.599003556020461  -5.188847401782398  -5.202914696635842E1   5.961351240377117E1  -5.924925921207719E1   2.566177089003612E1  -3.963867353949141  -5.082646941313049E1  
 3.000002500000000E9    -2.534848742265409  -1.192667206526580E2  -6.478924265931518E1   3.865362393785917E1  -5.699180090712174E1  -3.423517979298477E1  -1.760148278846214  -1.519974271008936E2  
 3.030002475000000E9    -2.001412674172653   1.382396008291074E2  -5.159374445241482E1  -7.816000099051223E1  -5.575986424730603E1   8.345950369831432E1  -2.867724947550204   1.150037511764676E2  
 3.060002450000000E9    -2.468556461834254   2.335995894624293E1  -5.805349121812711E1   1.661470119748430E2  -5.826754659241722E1   4.231424708528722E1  -3.403076658220324  -4.108167153186106  
 3.090002425000000E9    -2.960877383148290  -8.686721312044101E1  -6.489314589704024E1  -1.587559772687372E2  -6.509445484829895E1  -1.409317417155380E2  -3.620798729366975  -1.103437753112605E2  
 3.120002400000000E9    -3.044925378298824   1.678487442833823E2  -6.556611464154312E1   6.913460211235038E1  -5.985521067843779E1  -1.485561245600658  -2.884418496908308   1.279198826550136E2  
 3.150002375000000E9    -2.955675438343070   5.842840837160518E1  -6.479635643081430E1   1.266092759281438E2  -5.134919751275139E1   1.142702081061272E2  -2.858917926486207   8.926373640476220  
 3.180002350000000E9    -2.342253030893941  -4.611059426007184E1  -7.102370735723774E1  -1.765407046375663E2  -5.403567444122475E1   5.953734652442478E1  -2.368759045925436  -8.867695397962524E1  
 3.210002325000000E9    -2.429440651642088  -1.602032184742128E2  -5.357578217477003E1  -1.254253183580834E2  -6.194747624442799E1   6.184715257094231E1  -3.287169648225489   1.633434813188590E2  
 3.240002300000000E9    -2.463596273976695   9.099460109867734E1  -5.473905686748002E1  -1.600243129310636E2  -6.190909188356338E1  -5.899532879540572E1  -3.512711358923736   5.671037652946824E1  
 3.270002275000000E9    -3.057802053830008  -1.757003381601557E1  -5.927495743997781E1  -6.860796752348000E1  -7.377328298349109E1  -9.079828167004497E1  -3.081484863187066  -3.977957657168187E1  
 3.300002250000000E9    -3.703444718198230  -1.360158667388755E2  -5.811350602890602E1   5.819064458072735E1  -5.258667919229148E1   4.482134090103300E1  -4.133320147518693  -1.715882131957517E2  
 3.330002225000000E9    -2.891487391887127   1.220617109858797E2  -6.569484796996635E1   1.276058015028730E2  -5.434973889449994E1  -5.142583678702329E1  -2.906660991260416   8.536868669677386E1  
 3.360002200000000E9    -2.749324083403487   1.621211940552159E1  -6.573508013331512E1   1.595861813094723E2  -6.649471481101256E1  -4.292831333848351E1  -3.583860421531878  -2.519306466033196E1  
 3.390002175000000E9    -3.164774965058576  -9.075046937461687E1  -5.588582053464363E1   1.436725881074350E2  -9.418423536404801E1   3.275314952831310E1  -3.619841167259079  -1.391059222937405E2  
 3.420002150000000E9    -2.293608114353381   1.593319376909760E2  -5.901000017477725E1   3.089225383089301E1  -5.826562952680978E1  -8.729805391221828E1  -3.333280495779020   1.305651646647751E2  
 3.450002125000000E9    -2.972694087133960   4.730281498225717E1  -5.806612161081341E1   1.197822763931724E2  -6.158822136464350E1  -1.532828217585158E2  -3.731346124806241   1.856871216661050E1  
 3.480002100000000E9    -3.165313675351464  -6.018029297663718E1  -7.175320514036562E1   1.571898990355645E2  -5.822115492800752E1  -1.428126553116323E2  -3.302425449620992  -9.839893694615682E1  
 3.510002075000000E9    -3.878751217827617  -1.799190180817967E2  -6.075008715260171E1   4.042023671554047E1  -6.278658375125645E1  -5.174650997668905E1  -3.093137335057294   1.548932776944857E2  
 3.540002050000000E9    -3.773558179188164   7.941033223510684E1  -5.862418626769988E1   7.155100157921018E1  -6.513067553206038E1  -8.646301009810719E-1  -4.453973342877233   3.228397607556389E1  
 3.570002025000000E9    -2.569810870347232  -2.198359636738585E1  -5.653534992529111E1  -5.032296675163006E1  -5.903626409086311E1  -6.335848053629618E1  -3.484994829728397  -6.923004290468832E1  
 3.600002000000000E9    -3.281448159051091  -1.331875774967842E2  -6.349573358597480E1   5.576894285974154E1  -6.704672677374032E1  -8.691086890151668  -3.722787034171537  -1.723212621462177E2  
 3.630001975000000E9    -2.915690304381092   1.199940220109824E2  -5.879713465225474E1   9.793624051438981E1  -6.622284808926631E1   4.277540176515484E1  -3.499117951234388   7.091401896789127E1  
 3.660001950000000E9    -3.807134049543982   2.187472210489392  -7.486313056220912E1  -4.331993549183056E1  -6.338935328111705E1  -1.496945181633015E2  -3.932171732969795  -2.179008204643001E1  
 3.690001925000000E9    -3.836495392984874  -1.107739415613626E2  -7.335626029209672E1   5.277139771202001E1  -6.141181190100549E1  -1.614310861781944E1  -4.010436462020213  -1.409952578706921E2  
 3.720001900000000E9    -3.605853103961162   1.376582646893599E2  -5.719521849841730E1   2.920852811117336E1  -5.803654383801541E1  -1.116705363964894E2  -3.443833176457939   9.902698354015483E1  
 3.750001875000000E9    -3.251288065475706   3.720810018908270E1  -5.915655874156023E1  -8.318976471277141E1  -6.504759100699189E1  -1.377065507130408E2  -3.529076699080496  -1.260375540159733  
 3.780001850000000E9    -2.963288528314319  -6.246811292229811E1  -6.518009412421232E1   1.646068851228972E2  -5.627345586758658E1  -1.704514670508146E2  -4.035854389019840  -1.208596434814267E2  
 3.810001825000000E9    -3.519181600671383  -1.785212002282652E2  -6.908183146248533E1   1.531341403573503E2  -5.719963740571935E1   6.322772284827449E1  -3.455927292309811   1.408910509728036E2  
 3.840001800000000E9    -3.198444556046462   7.929352768615958E1  -6.263417873952952E1  -7.681308527412801E1  -6.668315587534464E1   3.939376322608223E1  -4.704905336962325   3.788733805666957E1  
 3.870001775000000E9    -3.705565122658592  -3.965512497068431E1  -5.860104853321631E1  -1.651652720964064E2  -6.469315935322436E1   4.150573149246291E1  -4.210925193456627  -8.017058591866613E1  
 3.900001750000000E9    -4.080331479943202  -1.617360404966988E2  -5.933637312264215E1  -8.871175342826930E1  -6.105371813780894E1   1.083452693978294E2  -3.748097552397196   1.770666243328284E2  
 3.930001725000000E9    -3.683719500574417   1.001303860001263E2  -6.138836772567212E1  -1.831734309661058E1  -5.679940419809988E1   9.549446096981339E1  -5.328194505763210   6.196907505410372E1  
 3.960001700000000E9    -3.683995141263240  -6.860904236123443  -6.203740742638626E1  -1.370822633864053E2  -5.940655307466938E1  -1.750380367095168E2  -4.594132773782269  -5.537921413071707E1  
 3.990001675000000E9    -3.115699392849892  -1.068413105962532E2  -6.897768194927765E1  -1.660037789650521E2  -6.264338029222198E1   1.415143785401729E2  -4.203200239399578  -1.544059741417981E2  
 4.020001650000000E9    -4.276290010353540   1.467551485519166E2  -5.707047309722362E1   1.753355357625126E2  -5.759531573191324E1   9.974070882714321E1  -4.941963913873966   8.889879652109528E1  
 4.050001625000000E9    -3.571055944661898   2.978159923309522E1  -6.576394523120166E1  -5.869217079067431E1  -9.292034474628592E1  -7.362326477634927E1  -4.048098642189593  -8.499664893194341  
 4.080001600000000E9    -4.024190521699196  -8.114989012175572E1  -7.928457410106579E1  -1.690740712538629E2  -6.087870382484472E1  -1.100255241242522E2  -4.632715325646246  -1.088893789726850E2  
 4.110001575000000E9    -4.693420694699691   1.523000053806928E2  -6.573147263732749E1  -7.370221116655808  -5.576605484047530E1  -8.890102615703295E1  -4.830066587303434   1.246598487924971E2  
 4.140001550000000E9    -2.858361154252449   5.644723207178525E1  -5.866839164482057E1  -1.251838262962804E2  -5.442000330957056E1  -2.673543139612982  -3.899027696760186   1.957338663569539E1  
 4.170001525000000E9    -3.934324088161189  -3.398578727129603E1  -5.283765352465923E1  -1.444284077626576E2  -6.587363704942406E1  -1.260160627239227E2  -6.051777355401888  -9.157246405833122E1  
 4.200001500000000E9    -3.669120094422243  -1.564668765701494E2  -5.727564085497880E1  -3.521787829818032E1  -6.534656685070954E1  -1.752473848264876E2  -4.498390866455408   1.527005468355321E2  
 4.230001475000000E9    -2.488834419931634   1.059954656608149E2  -6.071664410305306E1   1.602098198184782E2  -6.612857881864238E1   1.278904902583031E2  -3.684549011855132   5.877790757234896E1  
 4.260001450000000E9    -4.772152897880348  -8.060053482451409  -5.715092861318786E1  -2.749575311803235E1  -5.408235052541178E1   1.278629040988874E2  -6.531579273703551  -5.078349964506721E1  
 4.290001425000000E9    -3.192420427180872  -1.369080735725343E2  -6.425562585580289E1  -5.179638495737774E1  -7.104629415646041E1  -1.591713674720065E2  -4.386072860941187  -1.610657321045400E2  
 4.320001400000000E9    -4.148328975111297   1.257805833178496E2  -5.287625594183631E1  -1.451720351601000E2  -5.907497165863097E1   1.139786575197248E1  -4.648489829205940   1.039099444447476E2  
 4.350001375000000E9    -3.825747959011898   5.881633834975991  -5.979972714225172E1   1.421628236837873E2  -6.003426503699353E1   1.369433350366598E1  -6.444709964684560  -3.033537182731811E1  
 4.380001350000000E9    -1.846289146830843  -8.141148230275744E1  -7.062947395030615E1   1.185343488095067E2  -6.711812478840953E1   3.776096980865706E1  -3.317244520456191  -1.389987029272362E2  
 4.410001325000000E9    -4.205029811271400   1.715222058157168E2  -7.174213160751074E1  -2.957947566493139  -5.816362550145175E1   3.891257186139715E1  -4.423932300654092   1.261151597617073E2  
 4.440001300000000E9    -2.750328541921896   4.841730095428347E1  -6.221441870918748E1   3.216831710929664E1  -5.752965428160034E1   1.555795800561513E2  -4.733459876039733  -1.796543291469871E-1  
 4.470001275000000E9    -2.019698350018599  -5.016915268510577E1  -5.556043244454688E1  -1.779299977173081E1  -7.730838417588591E1  -1.261317867094692E2  -2.790336368663263  -9.275520725162109E1  
 4.500001250000000E9    -5.476978908418823   1.712087471602410E2  -5.742731345272224E1  -1.761519257187889E2  -5.978927423521392E1  -8.461743982038297E1  -3.877395591081263   1.680396513855005E2  
 4.530001225000000E9    -2.259070115329112   7.456403723989793E1  -6.597321154964556E1   5.737790145985642E1  -5.897180328375204E1   1.491795520919197E2  -3.835511981011594   3.332621169103282E1  
 4.560001200000000E9    -3.942558743393960  -2.286546865684097E1  -6.290685901890475E1  -9.295292469409722E1  -5.925313382812574E1   7.738470315559778E1  -3.314488750684866  -6.514588674962285E1  
 4.590001175000000E9    -3.676379492691011  -1.445845414673113E2  -6.989872233374636E1  -2.142564147773439E1  -5.811265211054290E1  -1.214022322993554E2  -4.962631163084351   1.775096304677621E2  
 4.620001150000000E9    -2.495151166500266   1.250717130576877E2  -6.533131192359156E1   5.466508925165172E1  -6.061921662245189E1   4.315372452368852E1  -3.483290013979508   6.146152588725502E1  
 4.650001125000000E9    -4.825936979553585   6.044818627710807  -5.689631277557833E1   1.569369723528619E2  -6.395841857638443E1  -1.788177478466753E2  -2.104170323002262  -2.519661850921850E1  
 4.680001100000000E9    -2.290765930259601  -1.074000751349970E2  -6.813749221507239E1  -3.130313717315872E1  -6.854165400327412E1   4.624273249167993E1  -4.453701646898883  -1.382366455128767E2  
 4.710001075000000E9    -5.199928747919420   1.447713278035060E2  -6.789442410179289E1   7.110132790752797E1  -6.971889982408693E1  -2.012916724481070E1  -3.916295723691823   1.101547561016794E2  
 4.740001050000000E9    -3.956111230898281   2.665302932196430E1  -6.723484456225567E1  -4.096505018637124E1  -7.681506125241990E1  -1.210869097977714E2  -3.954526748601988  -4.481974298000031  
 4.770001025000000E9    -2.662583239471077  -6.562379687463186E1  -7.083784297706920E1   8.230651706261743E1  -7.163714054434324E1  -1.132764516520411E2  -4.023313241741744  -1.309248405435348E2  
 4.800001000000000E9    -5.824314546801353   1.798133972903933E2  -6.336365208225013E1  -1.541945250525719E2  -5.856769629722043E1  -7.021657811784316E1  -2.675411995079390   1.341178269812601E2  
 4.830000975000000E9    -3.307157335651777   7.172679880568467E1  -7.317486675823308E1   8.506285165151104E1  -6.681507940696768E1  -6.123542140898974E1  -3.967020419904179   2.405674380657088E1  
 4.860000950000000E9    -3.536831011279122  -3.105440896591782E1  -5.766423490747179E1  -1.618331084713352E2  -6.437019625933498E1  -1.498221827997916E2  -3.613144283814557  -8.582243063190111E1  
 4.890000925000000E9    -5.071472099350049  -1.617447720600976E2  -6.825218996230237E1  -1.291340238504108E2  -5.881200326901413E1  -5.577208896830070E1  -2.347308744519916  -1.763148491030932E2  
 4.920000900000000E9    -3.882712194447812   1.008791158645931E2  -6.558899548212240E1   1.385255914703747E2  -6.057921581724769E1  -8.339253571472604E1  -4.984814637673100   6.087631039127141E1  
 4.950000875000000E9    -6.085426972849034  -1.632737057463636E1  -6.920714385142775E1  -1.333552161108075E2  -6.209612502367438E1   1.350760149424281E2  -4.778220722075428  -5.788945546582488E1  
 4.980000850000000E9    -3.892767345211447  -1.179038738070507E2  -6.709426996704140E1  -1.274144319724359E1  -7.238688385790569E1  -8.933356737823469E1  -3.297418506947243  -1.656740968041360E2  
 5.010000825000000E9    -4.642644243161506   1.466419112508808E2  -6.290006752079096E1   1.446128122427487E2  -6.991233310763059E1   4.186008066456214E1  -4.048319661042489   7.928955530543553E1  
 5.040000800000000E9    -4.660028575975423   2.764781385543399E1  -7.291819920860246E1   1.429679354210044E2  -6.589362218465837E1   1.689925242576506E2  -2.974994936016000  -2.071403006508374E1  
 5.070000775000000E9    -2.915614815712717  -7.309017760976118E1  -6.617599330425179E1  -8.879164417863649E1  -7.306147689906247E1   3.429791348373450E1  -3.444911738210282  -1.185443428301246E2  
 5.100000750000000E9    -7.188253854902165   1.629103122299439E2  -5.769817290912621E1  -1.011851907441963E2  -6.126758625249650E1  -1.084474449958726E2  -4.631806193588714   1.355096291475525E2  
 5.130000725000000E9    -4.038882752410158   5.345325747540714E1  -6.880079426229290E1  -1.459044046665273E2  -7.262755275607951E1   1.433678969590519E2  -4.004251497607799   1.788549021849964E1  
 5.160000700000000E9    -4.554605472650446  -4.969440266377642E1  -6.423523339743225E1  -5.067829230339799E1  -7.081714078151607E1   1.756811558439468E2  -5.139134886730902  -1.072791551736978E2  
 5.190000675000000E9    -5.647905079160871  -1.661140563070217E2  -6.476601834570509E1  -3.144753800403307E1  -6.112238232271258E1  -1.013989720421583E2  -3.554853891661632   1.429956795122762E2  
 5.220000650000000E9    -3.405018956395205   1.025305343653117E2  -6.410753972096869E1   1.488632143783121E2  -7.861079344648685E1  -1.291799676243881E2  -3.356648837782857   4.063018258732739E1  
 5.250000625000000E9    -5.103900320107136  -5.818943345475467  -7.225536585364100E1   1.709458923155989E2  -7.528119073860667E1  -6.961911314752022E1  -4.390199368316253  -6.604928551842629E1  
 5.280000600000000E9    -4.182069293722488  -1.210321470256883E2  -6.533565117446173E1   1.156581850982674E2  -7.024018601436801E1  -6.856646883631780E1  -3.199458441264988  -1.598026519832269E2  
 5.310000575000000E9    -6.363748278481103   1.334827009864878E2  -6.535697785945887E1   9.095480653400561E1  -7.089912781745667E1   1.125263177802947E2  -3.817750078714014   9.699576784299178E1  
 5.340000550000000E9    -5.827574331655386   7.375975942492491  -6.936860042873900E1   8.168272270192037E1  -6.188914529995036E1  -7.563224350694581  -4.961444935429021  -3.870101866100835E1  
 5.370000525000000E9    -3.709633458826294  -9.061555248296438E1  -6.881066514866353E1   1.169621968708060E2  -6.793744718331931E1   9.136299753560371E1  -3.170638833203868  -1.503360662610888E2  
 5.400000500000000E9    -6.778663171527969   1.685258956112363E2  -6.934612592033524E1  -7.500565363412875E1  -6.065412535619782E1  -1.333185333480026E2  -4.052645752418429   1.003821416939089E2  
 5.430000475000000E9    -3.514059091994620   5.896490394529262E1  -6.426450003762565E1   7.358170649521905E1  -6.458144094444243E1   3.190197539559335E-1  -3.956010863441719  -3.741129403068515  
 5.460000450000000E9    -3.768354306870614  -4.224404182874643E1  -6.090146639883785E1  -1.599126133911548E2  -6.698518530561199E1  -4.954817381460078E1  -2.878194472944652  -1.041555858655667E2  
 5.490000425000000E9    -6.795659996832633  -1.627643218876095E2  -6.403135620823038E1  -1.240988088556507E2  -7.246995286006590E1   2.777817650303799E1  -4.332691188079032   1.522925543888474E2  
 5.520000400000000E9    -4.797907186485491   8.463392069771064E1  -7.365854481875023E1  -1.513707889267805E2  -7.298081614277658E1   2.571701469939000E1  -3.914577381193559   4.305451041466230E1  
 5.550000375000000E9    -5.750425423105132  -3.232704815068917E1  -6.082466581697683E1  -7.236506047379235E1  -9.736347351259435E1  -1.051943874777201E2  -4.401933623715759  -8.502535746364487E1  
 5.580000350000000E9    -4.394060643267651  -1.400872128179621E2  -6.643653859734128E1  -1.260538782236761E2  -6.182441642969395E1   6.372036736580032E1  -4.200990287475400   1.621841644470198E2  
 5.610000325000000E9    -4.911027904367508   1.303258514911647E2  -7.133086152058210E1   1.610840143581584E2  -7.368938382723341E1   6.189275755655996E1  -2.839581827734271   5.907139363929072E1  
 5.640000300000000E9    -4.298114605050985   1.935796813375697E1  -6.744287204212186E1   1.455690154580192E1  -6.305794282505837E1  -5.884064899353382E1  -4.173620833691301  -4.994604499094888E1  
 5.670000275000000E9    -2.837957637912815  -8.649232581012430E1  -6.177362695574482E1   1.126582204029556E2  -6.165049927330338E1  -1.280495589774941E1  -3.584067412936268  -1.509447477749679E2  
 5.700000250000000E9    -7.301982764019435   1.619253341459346E2  -6.586923745514262E1   4.633250854059393E1  -6.963215789222883E1  -1.611248432584125E2  -3.137378945907234   1.111399454570951E2  
 5.730000225000000E9    -4.107931641065301   3.282590155090880E1  -6.242444781968094E1   6.185152706493161E1  -5.857667108422847E1  -1.519673445167750E1  -4.992907667509481  -8.385597073057884  
 5.760000200000000E9    -5.009111908345324  -6.939835384507531E1  -7.054271349709889E1  -9.288391457237776E1  -7.843043269149374E1   1.710611065975163E1  -3.638180234637393  -1.336628483348178E2  
 5.790000175000000E9    -5.004999345821369  -1.799527659594691E2  -6.109569937998848E1   1.413701250895421E2  -6.620338518904731E1   4.894072104078455E1  -3.378391918827003   1.158151956653862E2  
 5.820000150000000E9    -3.015434711141438   8.521195629691809E1  -5.897833355880272E1  -1.447804828307099E2  -6.845873583324897E1  -7.137455363255995E1  -4.229851545315011   1.637449387815649E1  
 5.850000125000000E9    -4.285869259555362  -2.174414296219434E1  -6.302469246231482E1   3.786399961236415E1  -6.094048372830987E1   7.764343459455482E1  -2.886151335871032  -8.995938713320103E1  
 5.880000100000000E9    -3.442486599210667  -1.331113244190328E2  -7.369350754625916E1   1.359215059982947E2  -6.366587339519148E1  -7.324419707214713E1  -3.393725001160856   1.702522798716003E2  
 5.910000075000000E9    -5.568296124341682   1.178393727882000E2  -7.171194188318833E1  -3.533711865867456E1  -6.536048091346105E1   1.384610241110212E2  -3.936442967279938   6.253964470594769E1  
 5.940000050000000E9    -4.823690136345928  -1.242302792255696E1  -6.380515256223357E1   1.287035997965561E2  -6.056238414218461E1  -1.754320509783726E2  -4.305645158363247  -5.449666712317255E1  
 5.970000025000000E9    -3.501810833002132  -1.132228710207914E2  -8.295155246675968E1   1.099064186014405E2  -6.041312210798130E1  -7.034939744551029E1  -4.197195395159338  -1.764757739659594E2  
 6.000000000000000E9    -5.704869919335375   1.416761883685334E2  -6.717169341671689E1   1.707933335832261E2  -6.814360398161546E1   1.263931362850528E2  -2.872087124686084   7.608934790846480E1  
