#  HZ   S   DB   R     50.0 
! Rohde & Schwarz ZVL13 2Ports - Version 3.20 - 1303.6509k13 SN: 100953
! Date: 2024-10-21 06:05:59
! Data & Calibration Information:
! Trc1:S11(Cal Off) Trc4:S21(Cal Off) Trc2:S12(Cal Off) Trc3:S22(Cal Off)
! 
! 
! 
 5.000000000000000E3    -3.782641651697299E-2  -2.617483362128406E-1  -6.204017105613349E1   2.966966536701199E1  -5.423439315006262E1  -1.211385015623385E2   3.287578548851743E-1  -1.764754045235839E2  
 3.000497500000000E7    -7.421866219052516E-1  -1.116550276922389E2  -5.903821895959356E1  -8.990335122689898E1  -7.201441400642719E1  -1.410776654664383E2  -3.707238715068825E-1   6.970634136141842E1  
 6.000495000000000E7    -2.057598509926923   1.369702295899242E2  -5.660482972815399E1   4.541979325349414E1  -7.820201796935484E1  -9.344079234892078E1  -3.328775495529065E-1  -3.891660018228861E1  
 9.000492500000000E7    -3.019205071319651   2.863662527444744E1  -7.332090976505140E1  -9.487654194184880E1  -6.309164066167575E1   1.231597103541185E2  -4.394853967895926E-1  -1.485739461804153E2  
 1.200049000000000E8    -2.905956865523312  -7.816662434298814E1  -6.329482472179406E1  -6.181150563510153E1  -7.453274907574074E1  -7.009695978219496E1  -5.814540412058431E-1   9.735434947449326E1  
 1.500048750000000E8    -1.931575050488203   1.712982810857825E2  -5.626256275399179E1  -1.646084296705804E2  -6.354587001094092E1   1.688381238738000E2  -5.271748448683054E-1  -1.368820746520870E1  
 1.800048500000000E8    -7.575993019687805E-1   6.442643074660042E1  -6.362562931240539E1   1.132841868738771E2  -6.445189767062226E1   1.116762001864474E2  -7.167611061532355E-1  -1.239946159653385E2  
 2.100048250000000E8    -5.990891898085635E-1  -4.764210444553601E1  -6.024325466273333E1   5.998856854921151E1  -6.245772923277189E1  -4.821816931053266E1  -7.962965279658730E-1   1.264438395279927E2  
 2.400048000000000E8    -1.519854762528103  -1.573498976921617E2  -6.621895302070743E1  -8.680927410918886E1  -5.507189395325226E1  -2.408265948568410E1  -6.641722664060823E-1   2.118538271850645E1  
 2.700047750000000E8    -2.897643949047132   9.461561913689664E1  -6.324294039065575E1   3.773678619280666E1  -6.799935183026227E1  -7.798446472970719  -7.892617310070045E-1  -8.873065242721303E1  
 3.000047500000000E8    -3.423768853785898  -1.605552006687658E1  -5.817665826343540E1   7.553466451916455  -5.643291343532736E1  -7.714007416036218E1  -7.999926166855924E-1   1.633593387032212E2  
 3.300047250000000E8    -3.167670899720017  -1.216650633192958E2  -8.402713873811989E1  -6.664216961518619E1  -6.841515330191339E1  -8.980293144578846E1  -8.673088121728092E-1   5.081000444028616E1  
 3.600047000000000E8    -1.997572606849694   1.255332439854515E2  -6.544050124304874E1   1.193120898094196  -7.028446461883782E1   6.237931158676689E1  -1.015368742130538  -6.386899037409879E1  
 3.900046750000000E8    -9.951240042197299E-1   1.717685087503766E1  -7.260578614814661E1  -9.857725063519395E1  -5.784582704392945E1   7.768444292836603E1  -1.104232949662739  -1.714293732030258E2  
 4.200046500000000E8    -1.214136884717689  -9.149230757216414E1  -6.635523549202951E1  -5.235265529467379E1  -7.275342991172448E1  -1.174192615990600E2  -1.247653735570077   7.941106146538088E1  
 4.500046250000000E8    -2.333543621658876   1.575166528795296E2  -5.837648504719068E1   8.619991648492028E1  -5.636306678629974E1   7.113118822813324E1  -9.160490291383840E-1  -2.926131214614481E1  
 4.800046000000000E8    -3.354324234691549   5.166083631066237E1  -5.949901608786067E1  -1.264837701186513E2  -5.603908013077588E1  -1.239401526921685E2  -1.045953245198659  -1.328081488174679E2  
 5.100045750000000E8    -3.398706322921157  -6.013599535051110E1  -5.634014291533833E1  -1.001339494052719E2  -5.683141165577947E1  -1.682711300959188E1  -1.303421060762564   1.153662358241535E2  
 5.400045500000000E8    -2.913457855136231  -1.668711737950913E2  -6.109336064905535E1   9.606242535918042E1  -6.926339839406721E1  -9.173772778968899E1  -1.272892467063707   2.834227977787440  
 5.700045250000000E8    -2.032021067778330   8.339708967170769E1  -7.736750050427960E1  -1.030373981468200E2  -6.957846826399860E1   1.316900099059390E2  -1.450602339647419  -1.097507547323201E2  
 6.000045000000000E8    -1.153960990628768  -2.825274764497282E1  -5.994679254072817E1   1.051888140395891E2  -5.613383814065155E1  -1.050103486352478E2  -1.570757356293425   1.364135213812213E2  
 6.300044750000000E8    -1.792617025081144  -1.326781431685743E2  -6.107165018445873E1   1.947733575494156E1  -6.709962822764966E1  -9.355596235750144E1  -1.403421434051315   3.295052215256165E1  
 6.600044500000000E8    -2.883652862249323   1.139440410543386E2  -5.922888902012605E1  -1.320798886362864E2  -6.464433326702481E1   6.997008480712965E1  -1.184835007687985  -7.467046739888875E1  
 6.900044250000000E8    -3.441247378816041   7.464179816324382  -5.881780470774714E1   2.705796464028234E1  -5.646084149732573E1  -9.469039428635726E1  -1.293239725757763   1.777265088142782E2  
 7.200044000000000E8    -3.695916005794083  -1.008298024131017E2  -5.824341336929304E1   1.603834093058352E2  -7.463883796912690E1   1.124667870009477E2  -1.524820572997343   7.198897795131448E1  
 7.500043750000000E8    -2.699604303246332   1.480483807673568E2  -6.138753733256239E1   1.611210613995039E2  -6.431187831733976E1   1.602682683110777E2  -1.620364707540301  -4.683979147109884E1  
 7.800043500000000E8    -1.835917853003139   4.150028797177772E1  -6.375232543592096E1   4.227126001924492E1  -6.648196477070836E1  -2.854024511824381E1  -1.731074595695689  -1.579021359632776E2  
 8.100043250000000E8    -1.404507161933230  -7.405004072395553E1  -5.987071474464815E1  -1.149506870585496E2  -6.605492322868756E1  -6.872867270106738E1  -1.620874056114687   9.268183822526123E1  
 8.400043000000000E8    -2.115034058746137  -1.765555830030519E2  -6.806074919253321E1   2.969180496879745E1  -6.214326939791420E1  -7.774552869586050E1  -1.385262309376157  -1.735563526161804E1  
 8.700042750000000E8    -3.263324320449011   7.320702505909809E1  -7.167826815026569E1  -1.479566284600363E2  -5.579817782326078E1  -1.648443770924561E2  -1.342515869480569  -1.185571203048446E2  
 9.000042500000000E8    -3.628706949393784  -3.879074879740563E1  -6.125531404408655E1   2.608298386168823E1  -6.854695253029568E1   9.242559047234704E1  -1.420846841842220   1.348300704035619E2  
 9.300042250000000E8    -3.498031255952077  -1.442974317932819E2  -6.115444467028032E1  -1.506507566185836E2  -6.298686738070018E1   1.258186468495518E2  -1.604152275152896   2.454233065254526E1  
 9.600042000000000E8    -2.508422619575501   1.037441854808261E2  -5.761996521516037E1   1.615747481079952E2  -6.846546407396207E1   5.252602733902238E1  -1.841242963481147  -8.903456357822603E1  
 9.900041750000000E8    -1.715914073600151  -2.961192508436390  -6.069622667958156E1  -1.399438056094281E2  -5.377261430631378E1  -1.238774672242237E2  -1.857978517833132   1.526604699923734E2  
 1.020004150000000E9    -1.546768297259374  -1.154364314690063E2  -6.935399628815918E1  -1.300659951733496E2  -6.486932292954123E1   1.218820960387838E2  -1.673690023358497   4.449437375949530E1  
 1.050004125000000E9    -2.548069551583251   1.352143310342649E2  -5.318081866659986E1   1.005711754955118E2  -5.407286703320285E1   6.845458768589074E1  -1.473711919163409  -6.063231195491375E1  
 1.080004100000000E9    -3.228524044696708   3.199302137856421E1  -6.242406768864619E1  -1.709093727683680E2  -6.148330365013234E1   9.306978940255402E1  -1.513599528706414  -1.676259768623335E2  
 1.110004075000000E9    -3.426793957057408  -8.317131213139652E1  -6.753417218810419E1  -1.102630973981779E2  -5.971622644810646E1   6.916982062545505E1  -1.637999996238128   9.195292298755645E1  
 1.140004050000000E9    -3.267049538090190   1.692970376511484E2  -5.428992954625508E1   1.783737210471947E2  -5.927355772520660E1   3.820914454221615E1  -1.672049473994661  -2.209618197286467E1  
 1.170004025000000E9    -2.142954289694601   6.158916941783086E1  -6.273140325779907E1   5.131328545580394E1  -6.852308186790224E1   6.526986178604486E1  -1.849398297049692  -1.410317448952295E2  
 1.200004000000000E9    -1.783417668503078  -5.019625071393821E1  -5.672401501563034E1   6.294440406981178E1  -6.459299439465715E1   1.672622347125148E2  -1.913201644675340   1.101186728192054E2  
 1.230003975000000E9    -1.866968205755400  -1.577831445017268E2  -6.182713019826048E1   9.545226633457492E1  -6.633094382812868E1  -4.349922043856373E1  -1.457781148906799  -4.037512454180551  
 1.260003950000000E9    -2.556069093494394   9.035704301705523E1  -6.343340035070758E1  -3.859616804121578E1  -5.345890974503575E1  -1.038926902396770E2  -1.770320728221275  -1.070921474676791E2  
 1.290003925000000E9    -3.526765649108756  -1.437861283154657E1  -6.253717803048104E1  -1.396248301390211E2  -6.311582326842672E1  -1.451302964077750E1  -1.580959066145352   1.541694279255601E2  
 1.320003900000000E9    -3.254666155851348  -1.240841190372019E2  -5.438463683436488E1   2.974213010638137  -5.332033768904270E1  -8.360892629840512E1  -1.725822462349012   4.035252896153135E1  
 1.350003875000000E9    -3.237320482569512   1.237712307860644E2  -5.502905908857314E1   6.910063224488975E1  -6.254156233183009E1  -1.338269004043654E2  -2.198551990377842  -7.058834461460772E1  
 1.380003850000000E9    -1.996834710190068   1.987697477993470E1  -5.899547774877254E1   1.648808673159457E2  -7.201512601053832E1  -5.501239035441729  -1.767019038264031   1.726214252951826E2  
 1.410003825000000E9    -1.877963438165596  -9.521499580494643E1  -6.298844931638782E1   4.030388712248618E1  -5.852764845823623E1   4.818236879429579E1  -2.266170168657733   5.654438852332274E1  
 1.440003800000000E9    -2.506244570502256   1.573776453638537E2  -6.353252880309537E1   1.250317450378505E2  -5.857478863614465E1   1.543593767540722E2  -1.745008397443664  -4.606491517549210E1  
 1.470003775000000E9    -2.593776330619036   4.984980906528651E1  -5.960512306551857E1  -3.892467952483618E1  -6.546573046114773E1   1.164653298817440E2  -1.607586157466865  -1.535229283330574E2  
 1.500003750000000E9    -3.773927873123894  -6.087106334400803E1  -5.459027084506636E1  -5.318469325810509E1  -5.064325002511961E1   1.129575888448750E2  -2.005396092808319   1.030639154371505E2  
 1.530003725000000E9    -2.904204855851535  -1.676639009881085E2  -6.612710092262540E1  -1.749264617175076E2  -5.941517169398811E1  -1.687002396588048E2  -1.618407137012984  -1.638700798612505  
 1.560003700000000E9    -2.973430214228241   8.075980317993333E1  -5.049938897791768E1   6.775614117208334  -6.217517550638596E1  -8.419558438068326E1  -2.560461814116840  -1.215464495291606E2  
 1.590003675000000E9    -2.136455374143929  -2.649607899029999E1  -5.490703722911664E1  -6.512004435997808E1  -5.684613947507415E1   1.047375552888574E2  -2.281299487347510   1.270952365937650E2  
 1.620003650000000E9    -1.791340551888999  -1.386356013446347E2  -6.157261972649602E1  -8.232449127042551E1  -6.706771045337817E1  -6.599484288886389E1  -1.864203252425926   1.303140393215731E1  
 1.650003625000000E9    -2.990816170668093   1.101727466524846E2  -5.291845836848953E1   1.110953143416494E2  -5.340002931748235E1   7.807508639579102E1  -2.315839592947245  -9.584300652525580E1  
 1.680003600000000E9    -2.639964748532850   7.192377167880450  -6.720653489137274E1  -1.551996205431315E2  -6.671451354724718E1   1.798260516861224E2  -1.534296994803160   1.651010647092598E2  
 1.710003575000000E9    -3.998079631561102  -1.036191971127224E2  -5.445189302958288E1  -6.806943180723766E1  -6.904613033704214E1  -5.961179156772781E1  -1.935916279917265   5.876082185263510E1  
 1.740003550000000E9    -3.082222594822714   1.460499318438322E2  -5.573872475385402E1  -1.286115973861460E2  -6.886762904739319E1   1.276997574645338E2  -2.291218056140048  -5.437220178614498E1  
 1.770003525000000E9    -2.467305009567058   3.976166598744705E1  -6.985313267589736E1  -1.072452986091554E2  -5.610348619939378E1  -7.819787656489761E1  -1.843203259181650  -1.655752530945158E2  
 1.800003500000000E9    -2.447639522591773  -7.607216348255906E1  -6.406429926147702E1   1.656737817827512E2  -5.380433892183319E1   1.501624171174052E2  -2.455142175591222   7.565468566882311E1  
 1.830003475000000E9    -1.642352625930416   1.776370768491239E2  -5.552026632275128E1  -1.013772684263695E2  -6.308721502275957E1  -3.538829282446256E1  -2.011399678178341  -3.239939307683125E1  
 1.860003450000000E9    -3.138407482678832   6.934658445095654E1  -5.616681569661338E1   1.650448558952708E2  -6.126597681348667E1   3.080939179283753E1  -1.819925096174279  -1.366603266057372E2  
 1.890003425000000E9    -2.925839004349868  -4.099898449629480E1  -5.880592104300332E1  -1.035140351830748E2  -5.555592057103051E1  -9.604507189854219E1  -2.372466341194882   1.158606320318812E2  
 1.920003400000000E9    -3.480769588561037  -1.464675661135337E2  -5.539026147342715E1   3.230341470824102E1  -6.285326629401475E1  -1.188893499777564E2  -1.793061704687326   1.319462072772735E1  
 1.950003375000000E9    -3.307532321763811   9.838779340562162E1  -5.503948100236138E1   7.926024718159731E1  -5.097261565872272E1   1.147158048787964E2  -2.203503024433960  -9.817089109289819E1  
 1.980003350000000E9    -2.032990080741214  -5.781737364508067  -6.027067999115737E1  -1.144333310404527E2  -5.596865712998537E1  -1.728062130327205E2  -2.527035509453642   1.448945737592835E2  
 2.010003325000000E9    -2.863320899645908  -1.216949898619423E2  -5.742187676011885E1  -1.461712665400598E2  -5.544440831399495E1   9.513195290159855  -1.793177970397346   3.493525775876528E1  
 2.040003300000000E9    -1.945935232444590   1.279903297832859E2  -6.740872666402257E1   6.956678352922201E1  -6.265177195415429E1   1.133937201352284E2  -2.768617447877637  -7.975202192157239E1  
 2.070003275000000E9    -2.860077424503366   2.688274809367921E1  -5.906446098685453E1  -4.888171735193340E1  -5.746879589773525E1   4.704050685262658E1  -1.915364436025542   1.747535612342638E2  
 2.100003250000000E9    -3.523501571892407  -8.977166509585217E1  -5.644484243679013E1  -1.147589520667922E2  -5.775306111129324E1   6.085312881770397E-1  -1.857733775195109   7.599674723259209E1  
 2.130003225000000E9    -2.786181083700858   1.700971299237529E2  -5.832236942454484E1  -2.175917330307160  -7.226720365260010E1  -8.180248093644936E1  -2.658906209131864  -3.666827223322480E1  
 2.160003200000000E9    -3.444177503071120   5.607487517316318E1  -5.695812589843012E1   4.640532686215049E1  -5.584035043331933E1  -1.762747826616988E2  -1.984704530845621  -1.470014670529785E2  
 2.190003175000000E9    -2.065950804727100  -5.513354206597155E1  -5.745125352257012E1  -1.179770092066238E2  -5.831240671991082E1  -1.671345645400369E2  -2.454890012817348   9.978564110336671E1  
 2.220003150000000E9    -2.554689570994325  -1.616915627886784E2  -6.666826809863147E1  -9.070399509800046E1  -6.101446689313510E1   7.726247573957690E1  -2.475813144759660  -2.040366565734388E1  
 2.250003125000000E9    -2.475199346360639   8.138308758938753E1  -6.211139693524262E1   1.097039973695673E2  -6.051598283606919E1  -7.314765625927898  -1.941136739740232  -1.223078053531634E2  
 2.280003100000000E9    -2.523416212299840  -1.470308108323919E1  -6.192021734802159E1  -1.629135427547531E1  -5.575994502268462E1   1.033839695833440E2  -2.637952654266676   1.294552410946066E2  
 2.310003075000000E9    -4.081251736114406  -1.296142475027909E2  -5.680620082487614E1  -1.602853292468592E2  -6.386684974399102E1   8.966346831365306E1  -2.109699466455326   2.077367169596034E1  
 2.340003050000000E9    -2.747476008913029   1.201284195817087E2  -5.939812694245829E1   2.787685335244846E1  -5.499074167332080E1   1.568414781166973E2  -2.098475973783599  -7.937106024436096E1  
 2.370003025000000E9    -3.107072092193265   1.788088129214327E1  -5.221705994122927E1   7.425158966399528E1  -6.393694104078862E1   1.856215848634301E1  -3.012674952471913   1.633176451247237E2  
 2.400003000000000E9    -2.696505157793223  -1.074954825614778E2  -5.752559786074551E1  -1.150270536561185E2  -6.632970107880078E1  -9.773761660547075E1  -2.276625271538745   5.058835520013412E1  
 2.430002975000000E9    -2.209907163108729   1.519801657906295E2  -5.919989951495818E1  -1.763566163877684E2  -5.561570547540375E1   1.404379629065464E2  -2.522223326253591  -5.899289143148820E1  
 2.460002950000000E9    -3.090407028885881   3.920523004855156E1  -6.855536823440792E1   2.600203299669025E1  -5.721642200759730E1   1.680980423099041E2  -2.680949773610797  -1.764527245829355E2  
 2.490002925000000E9    -2.808886965197312  -6.713063441554536E1  -6.609396720326046E1   1.002982593462229E2  -5.547427432914758E1   4.729729363471969E1  -1.914718215260057   8.588739261261625E1  
 2.520002900000000E9    -3.571285258979888  -1.672034552254006E2  -5.832425905422164E1  -1.596199451546450E2  -5.802216641183641E1  -2.179639428842180E1  -2.641592023076897  -1.888709108662736E1  
 2.550002875000000E9    -3.354722850831619   7.299212461177353E1  -5.539121897351615E1   1.184027252692707E2  -5.861624823350333E1  -3.577999033651215E1  -2.684539667627670  -1.326102582713139E2  
 2.580002850000000E9    -2.394906914396239  -2.840176171129680E1  -5.450903216113483E1   1.164280943087776E2  -6.244514494604920E1  -1.513884385129444E2  -2.242256614087150   1.240706976146314E2  
 2.610002825000000E9    -2.871401667773521  -1.485724001905143E2  -5.813859602879719E1   1.409644136628031E2  -5.447159860080688E1  -8.985866047541766  -3.359310454092996   1.098836497620355  
 2.640002800000000E9    -2.294067163604574   1.030829062682646E2  -6.305396710280387E1   6.488988822421467E1  -6.320423806346031E1  -1.788405870023289E2  -2.312377101436838  -1.134571157792019E2  
 2.670002775000000E9    -2.789899244616103   2.878566080357400  -5.205970722787216E1   6.986260468023525E1  -5.551544158865794E1  -1.414829565967003E2  -2.094121199507399   1.500963131225769E2  
 2.700002750000000E9    -3.725766373974193  -1.170497028708993E2  -5.187036071042778E1  -1.683040837604017E2  -5.866342652275821E1   1.423107898925347E2  -3.082679661958680   3.547823396208638E1  
 2.730002725000000E9    -3.106062254118076   1.451602690607253E2  -7.460920144995927E1  -2.176731510980901E1  -4.911163276226010E1   1.242512909632854E2  -2.129312083433582  -6.715874610277088E1  
 2.760002700000000E9    -3.743843636788489   3.273201432447102E1  -5.160008387839132E1   8.960909929133872E1  -5.452023785717930E1  -1.273812732910077E1  -2.586203043373301  -1.675784844945092E2  
 2.790002675000000E9    -2.863170957819988  -8.454988425072855E1  -5.612711907394812E1   9.743759932074390E1  -5.123460695372201E1   1.001227624072959E2  -3.317230067305086   6.604600824097666E1  
 2.820002650000000E9    -2.366097161156666   1.738809735718373E2  -5.720021245229042E1  -3.035846487135913E1  -6.031781949844424E1  -1.093908402743652E2  -2.252869939223915  -4.210296351006343E1  
 2.850002625000000E9    -3.447643670165190   5.442533345803504E1  -5.473513152660163E1  -1.083863639645090E2  -6.071342687761943E1  -2.286785020114849E1  -3.391690658692341  -1.562782355591481E2  
 2.880002600000000E9    -2.645116943137250  -4.489037865181005E1  -5.085845438959143E1   5.135258477466498E1  -5.325987565286292E1   6.264429896894702E1  -2.801264874958882   9.113134171787037E1  
 2.910002575000000E9    -4.168688453814424  -1.546209658719642E2  -5.322524870710679E1  -8.574183336999997E1  -6.747576689620334E1   1.576667830288162E2  -1.961848584811703   5.931220807164012E-1  
 2.940002550000000E9    -3.621360229750044   9.112892859769544E1  -5.247361751641842E1   1.278345283500366E2  -5.199621777188442E1   1.275905148712660E2  -4.099779523553847  -1.145202259458850E2  
 2.970002525000000E9    -2.697381162067567  -4.303939949184075  -5.882706044106637E1  -6.054403036260137E1  -6.182390985324971E1  -1.268982421588119E2  -2.644258519979557   1.349849734590929E2  
 3.000002500000000E9    -2.512644145821447  -1.217867398124016E2  -5.892456753460249E1   6.689020323081326E1  -5.125707627486680E1  -9.377264078047494  -2.815825819225205   3.565919971168857E1  
 3.030002475000000E9    -2.175694228436219   1.374327546675633E2  -7.267499382767439E1   6.913384165540853E1  -5.773640038652996E1   6.662390713443045E1  -1.381561624684315  -8.960288405292987E1  
 3.060002450000000E9    -2.355115791267147   2.606564436080040E1  -5.492015145762380E1  -1.426802661503987E2  -5.662956075405456E1   1.070142477725723E2  -1.819708971318685   1.695327733346941E2  
 3.090002425000000E9    -2.920850474589975  -8.510784835368435E1  -5.925132119678255E1   1.120812361805781E2  -5.938396824898852E1   3.539961045303387  -2.521717254603263   5.844734268295227E1  
 3.120002400000000E9    -2.964619343853081   1.717731765692899E2  -6.121031080179256E1   1.053600653640044E2  -5.563413903011084E1  -1.785915159206067E2  -2.227878153072582  -4.403894387738396E1  
 3.150002375000000E9    -3.391207710193945   5.608426035044090E1  -5.966136716066990E1  -5.403537109114284E1  -6.579217356231820E1   2.544736968689561E1  -2.766244577408713  -1.425626117932393E2  
 3.180002350000000E9    -2.395446809029771  -4.466097230655460E1  -5.946037257584501E1  -9.299940864373333E1  -7.272564348227337E1   1.332592108501627E2  -2.426895630162334   9.309208803701179E1  
 3.210002325000000E9    -2.585315436515412  -1.610647527283712E2  -5.718199831687250E1  -1.571282821427213E2  -5.884027491847991E1   6.241953453128386E1  -2.794572016212452  -1.544528647229451E1  
 3.240002300000000E9    -2.933488055229780   9.071548339070407E1  -6.517490160257299E1  -2.067883912227299E1  -5.567692205789710E1   6.910430135260651E1  -2.177535002794156  -1.318994488255742E2  
 3.270002275000000E9    -2.873627023960372  -1.540492734511844E1  -5.746523288132011E1  -1.387646501965724E2  -6.541040151751088E1   9.858010808325811E1  -2.452100509258298   1.160532073089594E2  
 3.300002250000000E9    -3.402174564083288  -1.338181301645564E2  -6.139978614043057E1   1.511805242955758E2  -6.208950254949104E1  -1.650662376482781E2  -1.939248104062262   2.498988401924680E1  
 3.330002225000000E9    -3.089447264818841   1.248810757132266E2  -6.112397127587338E1  -9.082080252261646E1  -6.467839453606283E1   1.650856683177128E2  -2.620206508924324  -9.212910120929635E1  
 3.360002200000000E9    -2.961738636856318   1.776266491818956E1  -5.682762152096355E1   1.643462086357599E2  -5.686737300554709E1  -1.339883003542554E2  -2.582782996064264   1.584438709193823E2  
 3.390002175000000E9    -3.243809704770694  -9.112632959322252E1  -6.139175535024721E1   3.344314384719881E1  -6.881062358869677E1   1.665734503824970E2  -2.772030714088412   5.909392800977025E1  
 3.420002150000000E9    -2.541711982974446   1.593330182918060E2  -7.276937919085320E1   9.568376613456852  -6.165956708741467E1  -8.921935783868040E1  -2.964580456110960  -7.449353236715363E1  
 3.450002125000000E9    -3.619714077371327   4.808058119745788E1  -5.083779089314602E1   1.266807568103218E2  -5.784594887685177E1   8.431768979391890E1  -2.448964261695951  -1.761217806136547E2  
 3.480002100000000E9    -3.353839889248628  -6.392801248354743E1  -6.342381718543886E1  -1.288005890811057E2  -6.489883918207050E1  -8.449193449095371E1  -2.555571993567236   8.034995711902562E1  
 3.510002075000000E9    -4.125436474840599  -1.791300507624306E2  -5.752830056266718E1   1.719266693080289E2  -6.203614069316196E1   1.172706303127382E2  -2.622224746124094  -2.995194287329613E1  
 3.540002050000000E9    -3.637300712343229   7.892761268922372E1  -6.299016635845282E1   7.892441493962387E1  -6.996863401650528E1   1.307293500522104E2  -2.603032184585364  -1.277144908026170E2  
 3.570002025000000E9    -2.688691372951263  -2.126842476433049E1  -6.050542478237172E1   1.736991519387758E2  -7.607733768237118E1  -8.680393449763332E1  -3.008774037900513   1.208609656203990E2  
 3.600002000000000E9    -3.555892793078380  -1.338642136209322E2  -6.524556523653139E1   8.964592820154113E1  -6.236529884554871E1  -1.010857806148448E1  -2.302785376514185   5.229027766898581  
 3.630001975000000E9    -2.949951994200260   1.202120717585490E2  -7.063053739926104E1   3.651714507223369E1  -6.747743817930297E1   1.026380056344980E2  -2.690417820541208  -1.035090745936535E2  
 3.660001950000000E9    -3.820907800701007   1.951802197647311  -6.305624375500857E1   6.562911197352921E1  -5.959748524859307E1  -5.217766483824220E1  -3.600214188609989   1.332744332698329E2  
 3.690001925000000E9    -4.217230791973337  -1.109733564827619E2  -5.989387250636925E1  -5.122398843691049E1  -5.711301017766520E1  -8.830798789253974E1  -2.781993523658103   3.735117677774571E1  
 3.720001900000000E9    -3.979926015840482   1.401739115002714E2  -7.080670086942131E1   1.389220194282428  -6.593477245383130E1   8.138564848842716  -3.264201751647868  -6.443890471301404E1  
 3.750001875000000E9    -3.661671707149020   3.559195197811127E1  -6.363738680548750E1   7.694615755707564E1  -5.898154537752374E1   4.624753392871303E1  -3.359264219245196   1.751173967436063E2  
 3.780001850000000E9    -3.248700664259171  -6.168271212004057E1  -6.004994406056309E1  -1.000724027457237E2  -6.072375811294297E1  -6.557792601010187E-1  -2.546419456546659   7.905711348459361E1  
 3.810001825000000E9    -3.795041606574251  -1.775689284938698E2  -5.838973725855583E1  -7.836653918272914E1  -6.788560422647953E1  -1.013092040829098E1  -3.665208073038208  -3.905636872689731E1  
 3.840001800000000E9    -3.594481453383720   7.793935154319995E1  -6.399220130642832E1  -1.114801480468910E2  -5.688349359565788E1  -9.550428230404719E1  -3.148815258704305  -1.576240058146404E2  
 3.870001775000000E9    -3.818826957782832  -4.052938842340082E1  -6.378479805278035E1   5.316090037763389E1  -6.143685255908270E1   7.404537352052304E1  -2.767091644425610   1.019402869164891E2  
 3.900001750000000E9    -4.152419100659313  -1.590400902338713E2  -6.432539276027035E1  -6.361562620289664E-2  -6.351677265008576E1   2.710971208971898E1  -3.211524501281874  -2.010768010825871E1  
 3.930001725000000E9    -3.841425651964065   1.004099051299456E2  -6.201587421651052E1  -2.367589293943575E1  -6.216894599662057E1   9.730339695713068  -2.462188422602828  -1.181134405271823E2  
 3.960001700000000E9    -4.301661591610614  -5.384373486857045  -5.930969242481073E1  -1.696638362488451E2  -5.583174742342295E1  -9.640467297410415E1  -3.307498740399772   1.434999295090945E2  
 3.990001675000000E9    -3.147522318806804  -1.059145858588085E2  -5.579507050006742E1  -1.361421815839904E2  -5.463615635968873E1  -4.192698537998003E1  -3.364737025944524   2.192219165404914E1  
 4.020001650000000E9    -4.288329686955144   1.455077819972037E2  -6.213774321966371E1   1.563677192268337E2  -6.132053334385510E1   7.266426871568163E1  -2.816063828374332  -7.988213816524609E1  
 4.050001625000000E9    -3.669029157896827   2.643753085820034E1  -5.774288017837535E1   2.972818448890660E1  -5.702620446197619E1  -1.661773664341218E2  -4.740673023231964   1.539704201869272E2  
 4.080001600000000E9    -3.893370633097711  -7.836346903764159E1  -5.842080830408460E1   1.056787857718942E2  -6.483262717002114E1   4.143545669970198E1  -3.638257946840762   4.198364276389835E1  
 4.110001575000000E9    -5.466775369641977   1.546249840433476E2  -5.892479845778177E1  -5.469654447449328E1  -5.763715080288584E1   9.390303360576952E1  -3.033740886874757  -4.765381678532486E1  
 4.140001550000000E9    -2.953678470367709   5.609123194670377E1  -5.708294019125430E1  -1.292835934541147E2  -5.806490037217566E1   1.790841717706974E2  -4.745071479800402  -1.661791878525617E2  
 4.170001525000000E9    -4.295219347795888  -3.443211164920434E1  -6.390379115099275E1  -6.863509068808297E1  -5.394095688284380E1   1.659812863810869E2  -3.513560478188694   8.930324522742480E1  
 4.200001500000000E9    -4.225494776529353  -1.563335901457066E2  -5.568454873777169E1  -1.692622396644270E1  -5.854329843853043E1   1.504882385595985E2  -4.035864804944978  -5.274333814976364  
 4.230001475000000E9    -2.788239440622031   1.064360838869806E2  -6.554749696907194E1  -1.458535345919699E2  -5.697598815951211E1   4.261663812953204E1  -5.259438593842014  -1.336614528152878E2  
 4.260001450000000E9    -4.396802339782206  -1.052219481416895E1  -5.651489530205124E1  -1.353905233098637E2  -6.194397939509197E1  -1.497533132585955E2  -2.896395874317333   1.177232806672948E2  
 4.290001425000000E9    -3.104745759634206  -1.365721072618005E2  -7.301960574881926E1  -7.414125177981461E1  -5.891844265894049E1   8.212945107599833E1  -5.489526668782059   2.205785685344791E1  
 4.320001400000000E9    -4.377680369766737   1.257635306236092E2  -6.349122643067194E1  -1.601863559530036E2  -5.741743488411310E1  -1.513838452862151E2  -4.246094938813377  -1.080832876811939E2  
 4.350001375000000E9    -4.094523199307823   7.312910473493848  -6.048819003996580E1   1.675375786879798E2  -5.913156619686775E1  -1.728636206304064E2  -2.666058293463531   1.683548856397716E2  
 4.380001350000000E9    -1.982179954124216  -8.331155737201483E1  -7.736228425217685E1  -1.308330588943494E2  -5.881541209465141E1   9.349990481179739E1  -4.487258822729638   6.257648951151597E1  
 4.410001325000000E9    -4.183788180922564   1.714916200598873E2  -6.220697716319935E1  -1.221129888565970E1  -6.282963623494548E1   1.156405505097011E2  -3.078344353839458  -6.447966383558907E1  
 4.440001300000000E9    -3.016761214602299   4.783472250733134E1  -5.280393117530137E1  -1.060286560932988E2  -7.095834131489305E1  -1.567059892863919E2  -2.773380478295841  -1.570185798154657E2  
 4.470001275000000E9    -2.529197660286850  -5.147662433737933E1  -6.408245239490123E1  -1.712801188869508E2  -6.045375944826610E1  -1.379032006052067E2  -4.244419673637035   6.822878392095979E1  
 4.500001250000000E9    -5.619142969888929   1.708142445019098E2  -6.543515282549245E1   1.766571780787191E2  -6.137495297070047E1  -1.202317692435979E2  -2.209855389781675  -3.800717960980267E1  
 4.530001225000000E9    -2.391105011117491   7.427195864550542E1  -6.658182763645822E1  -9.749185418067556E1  -5.646739573690693E1  -1.200597844147985E2  -2.104501201268711  -1.301639988461871E2  
 4.560001200000000E9    -4.180449157602589  -2.261005698740607E1  -5.822902788360774E1   1.732734824381487E2  -5.828884247441312E1  -1.188318146168362E2  -3.771045625036524   1.111379665546942E2  
 4.590001175000000E9    -4.249680930064721  -1.413550255156137E2  -6.931328139519827E1  -1.799371529074249E2  -5.506578571654107E1   1.131114594677000E2  -2.156767607512331   1.620729332909129E1  
 4.620001150000000E9    -2.487126621415457   1.273963791049860E2  -6.898767842048827E1  -1.506263861855941E2  -6.993585175132908E1  -1.619777354731164E2  -2.596024463889379  -9.235825273539196E1  
 4.650001125000000E9    -5.089528792199532   6.920032149621051  -6.619908799157459E1   8.815479113129661E1  -6.416996025567650E1  -1.635725419315490E2  -3.642438815790692   1.303123220060059E2  
 4.680001100000000E9    -2.545750766967451  -1.051366924359214E2  -7.260370462101325E1  -2.596570125943380E1  -5.888229181698772E1   1.605086779656784E2  -1.899529835851119   2.783766434910153E1  
 4.710001075000000E9    -5.624901493359854   1.458388196895025E2  -7.015698157424325E1   1.745196673749501E2  -6.748797804195952E1  -6.588118060132300E1  -3.183565508238951  -8.329698519403586E1  
 4.740001050000000E9    -4.758732898963014   2.367979641417994E1  -6.382749111000991E1   5.135265876412431E1  -5.880965744052510E1  -2.060197021685919E1  -2.949300228939948   1.716896978994778E2  
 4.770001025000000E9    -2.779520883752581  -6.631259639011068E1  -5.353522444482814E1  -1.428987645535800E2  -6.028242567141257E1  -1.127666662343031E2  -1.754176955011918   7.747672582967621E1  
 4.800001000000000E9    -5.858530268707642   1.790204170966586E2  -6.027718070134220E1   1.303879928458769E2  -7.635031127918727E1  -1.045735033273885E2  -3.552699053629925  -4.216864885267340E1  
 4.830000975000000E9    -3.252802839782917   7.169792394196773E1  -5.535906062458982E1   1.572887036633177E2  -6.360547876354401E1  -1.472459281393183E2  -3.293836541535631  -1.529671339535576E2  
 4.860000950000000E9    -3.807148139849769  -2.825402642036667E1  -5.799879184327622E1   9.979561122230555E1  -7.120472458156392E1  -6.640193577020822  -3.185258346310010   9.158625484503436E1  
 4.890000925000000E9    -5.632965297127192  -1.609825027898418E2  -6.601280056134004E1   1.175819828596245E2  -6.312434390648942E1  -1.705287572545963E1  -3.691756647666958  -3.663464457843194E1  
 4.920000900000000E9    -4.209983351863523   1.012878856258376E2  -6.058296990307260E1   1.244594242455394E2  -6.244149554682231E1  -8.812947391779393E1  -2.237992050649402  -1.299465595438612E2  
 4.950000875000000E9    -6.380825084460128  -1.335387673676246E1  -5.910570022015015E1  -1.714234061432684E2  -5.965582169147235E1   1.726390164335766E2  -3.035887664898925   1.353326030548741E2  
 4.980000850000000E9    -4.081298964066912  -1.188513575187913E2  -6.448778800967349E1  -6.172177919105754E1  -6.690738486721419E1  -1.314417491105016E2  -3.871994848374929   2.313734065606716E1  
 5.010000825000000E9    -4.369570291397478   1.481553503458322E2  -6.168281592317221E1  -1.601247422730020E2  -6.090727580251925E1   6.580845039384047E1  -2.509792719379396  -8.057915659174826E1  
 5.040000800000000E9    -4.670248661655724   3.057285222276911E1  -6.738285970847656E1  -6.951732400760521E1  -6.659975513080738E1   2.050883586168816E1  -4.060382272397500   1.570936833311726E2  
 5.070000775000000E9    -3.031125147568893  -7.240478593143727E1  -6.956501850996882E1   1.189733197640371E2  -7.541397907837100E1   1.347130225773216E2  -3.016269973898222   3.822573809529241E1  
 5.100000750000000E9    -7.473946341909325   1.692610853216000E2  -6.959262228012172E1   2.043431942264085E1  -7.315437234910471E1  -1.209238345284654E2  -2.891004246805546  -7.154972968344697E1  
 5.130000725000000E9    -4.700509694635231   5.304150086383262E1  -6.440609424635299E1  -1.143000612873597E2  -7.537545264342587E1   9.994642303070076E1  -3.455968872021767  -1.721460991103013E2  
 5.160000700000000E9    -5.186230633680609  -4.792701302261183E1  -6.942998316293472E1  -3.231838761675792E1  -6.599886021694378E1  -1.453014117260177E2  -2.679862378480315   9.416475027589664E1  
 5.190000675000000E9    -6.154183531670329  -1.654231236392750E2  -6.291048741166231E1   1.549503906516304E2  -6.217241950164122E1   6.820444941970661E1  -3.298004676156222  -1.784017372177084E1  
 5.220000650000000E9    -3.644053453537183   1.034015724531490E2  -6.370039626226696E1  -8.850475075726870E1  -6.041417761966724E1   3.626854583039417E1  -4.396280401190350  -1.317451144024552E2  
 5.250000625000000E9    -4.755397399271437  -4.897289084720178  -6.276813723837837E1   1.168494357392120E2  -7.872476000555479E1  -7.720052093396356E1  -3.007008032639157   1.164351393396591E2  
 5.280000600000000E9    -4.545132978650970  -1.201038665868265E2  -6.970143022172798E1  -4.161200768542985E1  -6.572991130970245E1   9.550869086079761E1  -4.342230654390531  -1.628960191066934E1  
 5.310000575000000E9    -6.575982449380798   1.358579260873587E2  -6.636553060114572E1  -1.363148534840408E2  -6.779803430888613E1   7.325867219477964E1  -3.055985153892759  -1.188703902081714E2  
 5.340000550000000E9    -6.310137881301589   4.993862487139977  -6.377841270507602E1  -1.563012883414842E2  -6.528147867984519E1  -1.708257344909108E2  -2.290874559198447   1.508725810953496E2  
 5.370000525000000E9    -4.246811619911147  -9.062181447929321E1  -6.698028672036560E1   1.709387239577132E2  -6.364762472998866E1   5.517580301242273E1  -4.142373456801098   4.708592870259383E1  
 5.400000500000000E9    -7.078181085574728   1.657316095575208E2  -6.931301885881646E1   9.496722454215175E1  -6.391631008538150E1   1.616487174219997E1  -3.223476819004902  -6.222459121710257E1  
 5.430000475000000E9    -3.779304901130872   6.054832863203743E1  -6.774176976645316E1   2.544569648860683E1  -6.386832895659612E1   1.595372381069921E2  -3.500099852811758  -1.795933826303795E2  
 5.460000450000000E9    -3.683514346964577  -4.067436521419306E1  -7.230858460212426E1   6.703110178601732E1  -5.780236318642335E1   1.717439081577336E2  -4.543532031149090   6.306202203073416E1  
 5.490000425000000E9    -6.915474137245866  -1.600732987002619E2  -6.374348019578340E1  -3.968843789147095E1  -6.841877336869831E1   2.700797172456976E1  -2.881244565646243  -5.452262298806280E1  
 5.520000400000000E9    -5.578397405998380   8.586202127315703E1  -6.568467872833740E1   9.599744035093457E1  -5.806262274034551E1   7.394553239287745E1  -3.169908805105843  -1.566600526079670E2  
 5.550000375000000E9    -7.187200239368614  -3.160236015318913E1  -6.016705138669195E1   1.415224695940545E2  -6.364972503525279E1   1.614106409918440E2  -3.208180186654493   1.104515956006198E2  
 5.580000350000000E9    -4.553692044158481  -1.381707331641040E2  -7.421681760256057E1   1.753617309823775E2  -7.001489541943947E1   3.502355791536157E1  -2.757925621519333   5.438818536206709  
 5.610000325000000E9    -5.488305901966719   1.305751106515749E2  -6.886715040763701E1  -9.682308246800206E1  -7.544281470978561E1  -1.688391146643490E2  -3.786770233855746  -1.125724393257631E2  
 5.640000300000000E9    -4.434196073112553   1.528571450219064E1  -6.093068394341848E1  -5.335874504193911E1  -6.141184895103237E1   2.414233877481552E1  -2.924304173461135   1.358407814150867E2  
 5.670000275000000E9    -2.775191416885074  -8.534600098051473E1  -6.307348164920840E1  -1.035702506815017E2  -6.104819000876442E1  -4.268992817043290E1  -3.525170866679440   1.144864158834137E1  
 5.700000250000000E9    -7.006072939016540   1.596195592973159E2  -6.160332967740035E1  -1.085407011490628E2  -6.430972149371051E1   7.734731367939590E1  -3.866596427258972  -9.835181762909741E1  
 5.730000225000000E9    -4.807809998373064   3.429521862176026E1  -6.900149631020086E1  -1.378733197996471E2  -7.307940671838490E1   8.095871064152655E1  -2.135826799184402   1.617638514937780E2  
 5.760000200000000E9    -5.575300573164281  -6.619941017063493E1  -6.041428127496296E1   6.507895945481711E1  -5.647565042003748E1   1.099989948037498E2  -3.392862732323399   6.431608310161954E1  
 5.790000175000000E9    -5.451801444101572  -1.786996344161904E2  -7.015010836894697E1  -9.323477593757249E1  -6.080827090069333E1   1.503950148592290E2  -3.410584899400551  -4.522656833175606E1  
 5.820000150000000E9    -3.232786076450345   8.591292297708560E1  -7.290407463816202E1  -1.741884884742650E2  -6.319117934321942E1  -1.719040591781588E2  -3.378518210763708  -1.591756591647450E2  
 5.850000125000000E9    -4.318066253990749  -1.903725677459337E1  -6.251750338656630E1  -1.289649672275328E2  -7.178532358271286E1   2.493544479625479E1  -4.225485045889562   8.753688801303275E1  
 5.880000100000000E9    -3.680063144182155  -1.323387012998761E2  -6.092623251006275E1  -1.058176963481895E2  -6.297424884533393E1  -8.574355113607943E1  -3.307417200201027  -2.946786287762571E1  
 5.910000075000000E9    -6.654358003528000   1.203626325612930E2  -6.435748629146021E1  -4.279669097612081E1  -6.402339978446645E1  -5.082804906582733  -3.086255129722216  -1.434507630952721E2  
 5.940000050000000E9    -5.672280336696971  -1.184498459893724E1  -6.306089095155637E1  -5.318181759189711E1  -5.993492950944070E1   1.629699703566629E2  -3.217654975820685   1.201069805451356E2  
 5.970000025000000E9    -4.139864610406852  -1.101017371673443E2  -6.371405073697213E1   4.353208935423861E1  -6.100375207863457E1  -2.283698481351985E1  -2.855658188988979   1.760061896794595E1  
 6.000000000000000E9    -5.826152795394108   1.431177287483399E2  -6.801822553683114E1   2.896645203045850E1  -5.809161255301047E1   4.476373458358326E1  -3.521037797923740  -8.922790977390764E1  
