#  HZ   S   DB   R     50.0 
! Rohde & Schwarz ZVL13 2Ports - Version 3.20 - 1303.6509k13 SN: 100953
! Date: 2024-10-21 06:41:31
! Data & Calibration Information:
! Trc1:S11(TOSM) Trc4:S21(TOSM) Trc2:S12(TOSM) Trc3:S22(TOSM)
! 
! 
! 
 5.000000000000000E3    -4.284386087341152E1   4.960028453927291E1   2.165710306753601E-3  -1.595317991470610E-1   4.183286515616375E-3  -3.587328931544101E-1  -4.211317818180845E1   8.110712285747908E1  
 3.000497500000000E7    -4.632012601504129  -1.462278932126550E2  -1.225942403218024  -8.735933334843996E1  -5.515608986251198E-1  -9.206334063879802E1  -1.043915898311376E1   1.717738098152594E2  
 6.000495000000000E7    -6.828064208638499   1.236475141654798E2  -2.924190797488190  -1.780842282168394E2  -1.982644849572546  -1.731521774100991E2  -5.604846056133330   7.173409047948475E1  
 9.000492500000000E7    -1.928463285150122   3.015646060285070E1  -5.748445323515249   9.710194119164258E1  -3.844428655734381   9.580040640447606E1  -3.372508684514014  -4.440493133708987E1  
 1.200049000000000E8    -8.986544654449160E-1  -2.664512832154156E1  -1.656772438916321E1   1.994905902031424E1  -1.614351076089189E1   1.526175294175167E1  -2.919443178541964   1.727750083867062E2  
 1.500048750000000E8    -3.512116979394347  -1.079716075953405E2  -9.707568981950317   1.603719737969037E1  -8.424285545199378   1.225097856420298E1  -5.618696957077725  -2.986158067386708E1  
 1.800048500000000E8    -7.728076237407209E-1  -1.772001349867080E2  -9.634360091716706  -7.041333428838840E1  -8.404128280911889  -7.698213985026111E1  -5.330210362161023  -1.775724270878850E2  
 2.100048250000000E8    -6.567907514506625E-1   1.334067084647977E2  -1.205546207527498E1  -1.463434342715160E2  -1.113622900354550E1  -1.535590600802436E2  -5.166108496746588   7.513201776181657E1  
 2.400048000000000E8    -2.579485805905831   5.562356049835361E1  -1.537921663725616E1   1.567370637211130E2  -1.567185464165510E1   1.428072336305670E2  -5.829667838295962  -2.590407850518493E1  
 2.700047750000000E8     6.044493304840644E-1  -2.173241009745367E1  -1.640626301462796E1   1.257197918526040E2  -1.752925729734729E1   1.154342285624655E2  -7.384394377983938  -1.258200459478253E2  
 3.000047500000000E8     1.517122864820855E-1  -8.224651733168470E1  -1.212304729489737E1   7.001491705290462E1  -1.279934006632218E1   6.875499692811597E1  -9.401139847176564   1.364915103773378E2  
 3.300047250000000E8    -1.754404851812202  -1.724451889901572E2  -9.985337802823647  -1.246781445957917  -1.048746163344157E1  -2.759840983887106  -1.252952620536964E1   2.919202906733202E1  
 3.600047000000000E8     8.635252421967763E-1   1.081213071222859E2  -8.726207680332594  -7.426600945527279E1  -9.767648170421461  -7.879522826237323E1  -1.469758099081621E1  -8.416209705602718E1  
 3.900046750000000E8    -1.075925400244812   3.384139617600031E1  -7.772173099593744  -1.540679348461151E2  -8.415513196999953  -1.517208867057181E2  -1.394158704600583E1  -1.751170110394431E2  
 4.200046500000000E8    -1.491647753149722  -8.185119681524138E1  -7.942422438945191   1.265564438287804E2  -7.871250710278280   1.334227080296946E2  -1.396197159839078E1   1.032510475721944E2  
 4.500046250000000E8    -8.770682308389366E-1  -1.592268573536737E2  -9.977493482438490   4.977238784741428E1  -9.947087908322548   5.519232569598417E1  -1.310752525508548E1   3.072878100821734E1  
 4.800046000000000E8    -3.815760201170903   1.130200262585533E2  -1.143314035309010E1  -1.628761964611211E1  -1.079647702683396E1  -1.620339064517277E1  -1.423684966980107E1  -4.431683799187604E1  
 5.100045750000000E8    -1.247715489112490   2.656567082536353E1  -1.256194999451184E1  -8.011483501922415E1  -1.144317412147088E1  -8.006167963674706E1  -1.337665280977098E1  -1.181434863939015E2  
 5.400045500000000E8    -1.961810652373598  -3.802196361636208E1  -1.358430099598305E1  -1.463709473580455E2  -1.319213963386803E1  -1.487260727176107E2  -1.296953164665920E1   1.763215647543652E2  
 5.700045250000000E8    -3.227181488229786  -1.254629814266120E2  -1.485606941993287E1   1.545005335823927E2  -1.430984757934379E1   1.486378805524692E2  -1.265832258684713E1   1.092840341328067E2  
 6.000045000000000E8    -4.830256490963831E-1   1.663712897334057E2  -1.566819550751196E1   9.639956217203203E1  -1.524692548982808E1   9.347318014169225E1  -1.277315931169848E1   4.450391105370182E1  
 6.300044750000000E8    -1.279386285594254   1.079137206729584E2  -1.531918620798138E1   4.026037719158002E1  -1.524567667950574E1   3.487837313049616E1  -1.426062897374112E1  -2.554089456634366E1  
 6.600044500000000E8    -1.730353665456847   2.788333103461024E1  -1.465562339819630E1  -1.594784995981736E1  -1.470625374899004E1  -2.318139112919402E1  -1.525086275084360E1  -9.100318016891113E1  
 6.900044250000000E8     3.426046804125766E-1  -4.167998573798644E1  -1.358744591089314E1  -8.067972354398872E1  -1.461097289445254E1  -8.699889386164479E1  -1.513143091007052E1  -1.648284588879969E2  
 7.200044000000000E8    -1.117730815747910  -1.072185562224408E2  -1.294287366258878E1  -1.412310346777670E2  -1.328716866941095E1  -1.455076684119850E2  -1.564925280997258E1   1.419365658614139E2  
 7.500043750000000E8    -9.103258658468203E-1   1.635726214284179E2  -1.136969606572739E1   1.557747091908489E2  -1.197156460102243E1   1.559946301721759E2  -1.686505699160277E1   8.450016815504108E1  
 7.800043500000000E8     4.033115313804727E-1   8.913779503987384E1  -9.444579046240307   8.459637691255799E1  -1.060962310275467E1   8.096668963350828E1  -1.922777512665082E1   3.210089976597958E1  
 8.100043250000000E8    -3.516643187633063  -1.783656733409804  -8.527600179927395   8.678168869252788  -8.782938486345101   1.252952580778847E1  -1.885883249349867E1  -3.191277394322664E1  
 8.400043000000000E8    -2.645665945885619  -1.204611437314523E2  -8.384261304705944  -7.044935076773898E1  -7.988723912182829  -6.088472070007364E1  -1.923087949361666E1  -7.894775581688242E1  
 8.700042750000000E8    -4.430974590056141   1.453615838420967E2  -9.310719717072153  -1.440664023634147E2  -8.605319246722827  -1.413878519197208E2  -1.806301298822829E1  -1.645790014935581E2  
 9.000042500000000E8    -3.065203361413806   3.443211748341958E1  -9.849515416502641   1.446516125441767E2  -9.184036447362852   1.406944636624225E2  -1.571896246133056E1   1.330535402817440E2  
 9.300042250000000E8    -2.168351152471702  -3.940830671405700E1  -1.120252898780993E1   7.395320986074847E1  -1.055424971090677E1   7.408373309199341E1  -1.630794497553917E1   7.650391805874241E1  
 9.600042000000000E8    -3.018449064534452  -1.269329709989313E2  -1.238744540425530E1   7.968485747196112  -1.230011746764687E1   5.781216639631995  -1.922788653853677E1   2.157359604969649E1  
 9.900041750000000E8    -6.506700816727765E-1   1.570789413935362E2  -1.326426900134223E1  -5.279480793448937E1  -1.256884356228378E1  -6.147120443929539E1  -1.819149988360604E1  -4.304511597268549E1  
 1.020004150000000E9    -6.644542845107079E-1   1.003888259833545E2  -1.354724997832247E1  -1.152059750024508E2  -1.437649207465463E1  -1.190397310441393E2  -1.821403792615131E1  -9.687909621517441E1  
 1.050004125000000E9    -1.603365487390019   2.401839676083794E1  -1.351555589325080E1  -1.761005570564836E2  -1.410335530545692E1   1.783741772928738E2  -1.970395245132079E1   1.720595765725919E2  
 1.080004100000000E9     2.290261626475376E-1  -5.022843219675035E1  -1.357814826151502E1   1.187341539696329E2  -1.363872639642798E1   1.227442501643779E2  -1.772459921791705E1   1.165964223311323E2  
 1.110004075000000E9    -4.542682859226844E-1  -1.124714201474016E2  -1.348723787964580E1   5.687771109937959E1  -1.426148623190387E1   5.376395150262983E1  -1.710892929214013E1   6.598738681819523E1  
 1.140004050000000E9    -1.043478663990938   1.700767079649022E2  -1.320492138222912E1  -4.667455916872815  -1.322820350624915E1  -5.876522777223841  -1.829760667255632E1   1.604885890368180E1  
 1.170004025000000E9     7.806363134343270E-1   9.903223769114308E1  -1.219461268655426E1  -6.833119080972041E1  -1.365007224519055E1  -6.672734734904768E1  -1.871231149786924E1  -5.734072250784429E1  
 1.200004000000000E9    -6.551732731358032E-1   3.294183126249079E1  -1.181077941977051E1  -1.374822174663694E2  -1.240826886986502E1  -1.333527746400534E2  -1.766481510996272E1  -1.322843697752329E2  
 1.230003975000000E9    -1.955024873610335  -5.656319874159716E1  -1.156928016600222E1   1.551588578227164E2  -1.097130695061229E1   1.642547683766765E2  -1.881806393029503E1   1.705798717597053E2  
 1.260003950000000E9    -9.290378013896843E-1  -1.314910186921125E2  -1.145385961511486E1   9.000478104152174E1  -1.146391027874159E1   9.334231192054641E1  -1.720610348772902E1   9.420739805099940E1  
 1.290003925000000E9    -3.007918439734905   1.490972415900319E2  -1.066731368299781E1   2.297170099507257E1  -1.016446912669655E1   2.298232869229652E1  -1.653775555098334E1   5.780244909873795E1  
 1.320003900000000E9    -2.299872073903492   5.550375894170379E1  -1.014392626959011E1  -4.632959569270978E1  -9.228734836841122  -4.036794397963404E1  -1.920100658211327E1   6.724289681556763  
 1.350003875000000E9    -2.788415024473106  -1.957015996280108E1  -1.030460417243581E1  -1.182700801322579E2  -9.820386218287851  -1.185813521930992E2  -2.170137315768140E1  -6.884760589225101E1  
 1.380003850000000E9    -3.881261560357078  -1.165316443692948E2  -1.074669085926375E1   1.763533567140218E2  -9.544579777566513   1.684837246543642E2  -1.902346479627602E1  -1.205397283123295E2  
 1.410003825000000E9    -1.381407297590913   1.608919736557363E2  -1.073529559168978E1   1.089667606662489E2  -1.085007135738335E1   1.076339949351436E2  -2.012190312839742E1   1.733087063576587E2  
 1.440003800000000E9    -1.986661058060594   9.053490437705371E1  -1.048416249913606E1   4.305201762754933E1  -1.094507961753540E1   3.421747690836860E1  -1.877524037538064E1   9.832503537553207E1  
 1.470003775000000E9    -1.764357657289074   9.793669559731325E-1  -1.077276596236971E1  -2.622621653708666E1  -9.995964340527999  -2.849290572273835E1  -1.662396347647340E1   5.139970716223738E1  
 1.500003750000000E9    -8.913881716540718E-1  -7.210932273786864E1  -1.071504982246459E1  -9.145497398162458E1  -1.221993738573175E1  -9.412424227965131E1  -1.802130682628452E1   7.458177626689060  
 1.530003725000000E9    -1.920322530911446  -1.477711122911565E2  -1.103263334612021E1  -1.565401805462865E2  -1.113670928299911E1  -1.637828056821217E2  -1.796625163682548E1  -6.912069977659341E1  
 1.560003700000000E9    -5.446452788276495E-1   1.293561851685329E2  -9.832626998682930   1.394139788003360E2  -1.024570928064242E1   1.415709587423367E2  -1.670522792807784E1  -1.329679450858736E2  
 1.590003675000000E9    -5.717482734646695E-1   6.200981938259874E1  -1.035009032088708E1   6.751506546714175E1  -1.199501758798539E1   6.861708187426262E1  -1.713958552187059E1   1.660276205270578E2  
 1.620003650000000E9    -3.012327787963418  -1.614520399096735E1  -1.023006467851289E1   1.948646372169440  -9.885499611195316   3.165369220719703  -1.675401805796354E1   9.569864548212016E1  
 1.650003625000000E9    -2.249733488443519  -1.089151628388709E2  -1.025847320791402E1  -6.229386744976873E1  -9.433190741863372  -5.426079016856276E1  -1.521085989712877E1   3.827918167897881E1  
 1.680003600000000E9    -3.290368935338506   1.746201730914295E2  -9.830979252890371  -1.343086992198172E2  -1.017676332828632E1  -1.333302283444164E2  -1.635238282601185E1  -1.601253861834249E1  
 1.710003575000000E9    -3.920593599237559   7.959361134370764E1  -9.480836771941533   1.602572821060805E2  -8.642641313765761   1.564934176728805E2  -1.750130655021710E1  -8.587736230931004E1  
 1.740003550000000E9    -3.214333775208894  -6.716328376042269E-1  -9.818880740147131   8.697820542578593E1  -9.506781579263423   9.517390512139454E1  -1.640570420570407E1  -1.596948533932056E2  
 1.770003525000000E9    -5.187339123808504  -9.166128032150103E1  -9.638451023858718   2.524935115354776E1  -9.572600520432724   1.853047218145123E1  -1.637782932306976E1   1.455885387845952E2  
 1.800003500000000E9    -2.529200970734745   1.692594631880628E2  -9.503102581209291  -4.319835414417514E1  -9.106852017370795  -5.391497497665812E1  -1.972717393161411E1   7.952991464387716E1  
 1.830003475000000E9    -2.743176896612085   8.933733836093198E1  -9.502215980220887  -1.158146180885195E2  -1.035917024772610E1  -1.150113642132194E2  -1.753345078654429E1   1.344008228899857E1  
 1.860003450000000E9    -2.983254122455195  -4.662907840274933  -9.795080313605048   1.767869360268932E2  -1.097224680348836E1   1.737386863035022E2  -1.978088926445997E1  -3.486456769430343E1  
 1.890003425000000E9    -1.840113737909783  -8.530073105422805E1  -1.032233690798574E1   1.079136259024913E2  -1.013517836962625E1   1.075648987730098E2  -2.349714019563096E1  -9.441636798695893E1  
 1.920003400000000E9    -2.842164753801167  -1.648697884618146E2  -1.045988390193414E1   4.303617022944071E1  -1.112063144615574E1   4.793787028444154E1  -2.549646230187490E1   1.694279384923925E2  
 1.950003375000000E9    -1.669465091398900   1.069910433294438E2  -1.035938076796257E1  -2.651913963777842E1  -1.124196006753802E1  -2.626093025488606E1  -2.252373469166558E1   1.375668487693356E2  
 1.980003350000000E9    -1.406938582212459   3.838596454004084E1  -1.106745256616435E1  -9.566798217556959E1  -1.089619908320287E1  -8.513204730242073E1  -2.367331902178067E1   1.017047821075493E2  
 2.010003325000000E9    -3.767552063599824  -4.161680241298771E1  -1.175223963210793E1  -1.576898512492234E2  -1.107786104393118E1  -1.525678586910969E2  -2.750798526602677E1   3.267985177744987E1  
 2.040003300000000E9    -2.014000667217570  -1.293885745391362E2  -1.144522720621632E1   1.371002860631149E2  -1.098062283188807E1   1.350814160188586E2  -2.390164714581124E1   4.783940566660935  
 2.070003275000000E9    -2.736616706140989   1.609362773529107E2  -1.158703084283396E1   7.305156587653232E1  -1.117367101374568E1   7.559751451941406E1  -2.307973411856651E1  -1.255645311441144E1  
 2.100003250000000E9    -3.252067479210313   7.661686132107292E1  -1.170690448333012E1   7.267047402813014  -1.116009819131910E1   6.080632626617442  -3.055072765497641E1  -3.716986245457851E1  
 2.130003225000000E9    -2.126309327955847   1.839206575166958  -1.176475547230329E1  -5.869987786560487E1  -1.095220195926072E1  -6.068419313699379E1  -2.420530874806991E1  -1.577543231298660E2  
 2.160003200000000E9    -3.470789531184680  -6.806299629919528E1  -1.171598850199397E1  -1.210599372883329E2  -1.095899455402315E1  -1.269107457053658E2  -2.307612967207566E1   1.753125379748598E2  
 2.190003175000000E9    -2.285261260264184  -1.605759908491617E2  -1.087079074789713E1   1.731253473058143E2  -1.093062405213943E1   1.649919729714198E2  -2.581601054093787E1   1.289375565258236E2  
 2.220003150000000E9    -1.285405377804885   1.244040327725711E2  -1.062518536187246E1   1.030080883148915E2  -1.119145344878192E1   9.848890057290824E1  -2.507337691107059E1   4.732892970400066E1  
 2.250003125000000E9    -3.358767644799711   4.416531953847130E1  -1.038364451568007E1   3.605200117792299E1  -1.102619328107251E1   3.382967362179164E1  -2.208902312056873E1   2.996246540048620  
 2.280003100000000E9    -2.680060640097852  -5.096379548747464E1  -1.004244470870648E1  -3.318840048570663E1  -1.050513968107073E1  -3.332308610546222E1  -2.362203465739395E1  -2.165761267101917E1  
 2.310003075000000E9    -3.163520271482522  -1.318281307439711E2  -1.017176186379463E1  -1.027492493408995E2  -1.083190242189168E1  -1.006538132493598E2  -3.106636338508489E1  -1.634243770818050E2  
 2.340003050000000E9    -2.901167858663130   1.301473110373429E2  -9.962810775583174  -1.729059620604111E2  -1.082197745510334E1  -1.732289137931053E2  -2.458184809448055E1   1.496105009910440E2  
 2.370003025000000E9    -1.809803929507902   5.234790108998151E1  -1.065511513243122E1   1.158329859726410E2  -1.034270704028466E1   1.250329720732306E2  -2.718417498340016E1   1.368161999984853E2  
 2.400003000000000E9    -4.298039877008432  -2.394609230027465E1  -1.125261762639777E1   5.198412790784300E1  -1.084741189679740E1   5.805588268994061E1  -3.499693458990269E1   4.549721364721090E1  
 2.430002975000000E9    -3.145000757234524  -1.203192713776905E2  -1.122944015886297E1  -1.492018767654064E1  -1.050579576555719E1  -1.753047734606448E1  -2.462126724605863E1   6.507173131769992  
 2.460002950000000E9    -2.524936228080988   1.692689713866264E2  -1.172871031510381E1  -8.044864838147605E1  -1.097130863552039E1  -7.892881371703146E1  -2.607422935463954E1  -1.603876369399322E1  
 2.490002925000000E9    -3.429321006507491   8.942952344524713E1  -1.183791099071094E1  -1.447874457005840E2  -1.142828542820758E1  -1.466868502185373E2  -3.183841187790226E1  -1.295848561574606E1  
 2.520002900000000E9    -2.318684684529953   1.160063873287579E1  -1.198855060928642E1   1.492835717212596E2  -1.138112163710717E1   1.456844228938835E2  -2.873198263108437E1   1.491777705017275E2  
 2.550002875000000E9    -3.005816178268376  -5.279642460788362E1  -1.200148123541002E1   8.668933687152649E1  -1.139267967845173E1   8.325511378268206E1  -2.300308939448802E1   1.525343391838518E2  
 2.580002850000000E9    -2.390834084442473  -1.408610982199509E2  -1.094561342842651E1   2.470273394443343E1  -1.152730481506309E1   1.370395922961178E1  -3.085398150232798E1   1.519312690978092E2  
 2.610002825000000E9    -6.372265965514319E-1   1.380178476038190E2  -1.066674781130305E1  -4.672405082396534E1  -1.152096248211896E1  -5.061096746736242E1  -3.156362231309503E1   3.887349078653602E1  
 2.640002800000000E9    -2.889274504770294   7.018392039232155E1  -1.085974467328196E1  -1.105679620623764E2  -1.161717556712583E1  -1.112060272250008E2  -2.126268207444464E1  -2.180256675704578  
 2.670002775000000E9    -3.057583598471475  -2.556725468346135E1  -1.010567004234878E1  -1.793821920060670E2  -1.068848953634285E1   1.770970128587987E2  -2.255944357305499E1  -1.508130899511354E1  
 2.700002750000000E9    -3.306888212106517  -1.074479442223847E2  -1.013720006012826E1   1.108262768684530E2  -1.069543340280780E1   1.145772535294030E2  -3.006576496954464E1  -1.306047921520302E2  
 2.730002725000000E9    -4.272206894075088   1.588689330724976E2  -9.802154808431267   4.047801310417139E1  -1.039265501162770E1   4.430208492424445E1  -2.578682912183198E1   1.403173507910627E2  
 2.760002700000000E9    -2.299751314581172   6.651495810744754E1  -9.938588832712998  -3.146334584038470E1  -9.675650418376513  -2.350260504270144E1  -2.298158646025035E1   1.486546259844598E2  
 2.790002675000000E9    -4.264451522858020  -5.944671284753409  -1.063665977921651E1  -9.507524678247884E1  -9.894350521976001  -9.095005450599312E1  -3.372092007108163E1   6.081663652782044E1  
 2.820002650000000E9    -3.813379052227651  -1.084262932094687E2  -1.014663791403346E1  -1.622121243688227E2  -9.651209551168602  -1.661337856030920E2  -2.159263394846041E1  -8.700694293166130  
 2.850002625000000E9    -2.513944360684054   1.734218981565407E2  -1.072068268925958E1   1.277203235920214E2  -1.013876838328131E1   1.294320432049520E2  -2.109887241579936E1  -3.454603528300727E1  
 2.880002600000000E9    -3.907246282608458   9.621518952655899E1  -1.080394822572962E1   6.474967765897679E1  -1.060919488713986E1   6.116362509028789E1  -3.043723500008828E1  -3.939309364287011E1  
 2.910002575000000E9    -2.521380412468028   9.297545565785468  -1.101175194821515E1  -3.904831303770929  -1.054470998611539E1  -1.133555336167708E1  -2.756447394330654E1   1.330278810157636E2  
 2.940002550000000E9    -2.475929866030077  -5.586922692210909E1  -1.094259236900570E1  -6.720047775766196E1  -1.088726734245924E1  -7.129476709751442E1  -2.095685844537567E1   1.314124321493751E2  
 2.970002525000000E9    -2.172524892495738  -1.484750009514228E2  -1.011757225631292E1  -1.353250627527253E2  -1.160246129546776E1  -1.416197634966153E2  -2.909921828770968E1   1.117559641204941E2  
 3.000002500000000E9    -2.237532090987726E-1   1.277287069987606E2  -1.059781590063464E1   1.519281884380762E2  -1.072644113418616E1   1.511161318606067E2  -2.310499179704826E1  -6.036167917492809E1  
 3.030002475000000E9    -1.943470665620555   6.058628288367654E1  -1.098050361635682E1   8.743939461400724E1  -1.152215836718054E1   9.618218680771298E1  -2.870163771394524E1   1.705471097908386E1  
 3.060002450000000E9    -4.681099383351847  -3.396417274452377E1  -1.051181504865165E1   2.173445693287228E1  -1.127040708927791E1   1.990596652761469E1  -2.807599393209529E1  -9.584056645811292E1  
 3.090002425000000E9    -2.790270656415906  -1.080092904746775E2  -1.067088435296699E1  -4.677305288789243E1  -1.075333123148406E1  -3.937708179721165E1  -3.646423013788632E1  -1.966150763745719E1  
 3.120002400000000E9    -4.354394283864288   1.637152371557344E2  -1.083850966354201E1  -1.157353604535030E2  -1.136247765136493E1  -1.091343538628764E2  -2.133758047001787E1   1.422513568408576E2  
 3.150002375000000E9    -3.254732175194735   7.356214710816224E1  -1.105594855823965E1   1.754599218599378E2  -1.070546969421164E1   1.731877561761737E2  -2.367061101049446E1   9.529616533704855E1  
 3.180002350000000E9    -4.606362547228131   4.252211897242761  -1.112494166307328E1   1.138375695734664E2  -1.009452014933700E1   1.205792282917167E2  -3.256364421889165E1  -4.648001368487459E1  
 3.210002325000000E9    -3.969015683167236  -9.607601163768904E1  -1.041898083125225E1   4.516078874743347E1  -1.103404449358406E1   4.504768895313929E1  -2.116039554471742E1  -2.453193476153792E1  
 3.240002300000000E9    -2.324608266769237  -1.787506619878819E2  -1.119229613309927E1  -2.509618600052164E1  -1.049664306161465E1  -3.308013189107364E1  -2.616659027334945E1  -4.837580673438555E1  
 3.270002275000000E9    -3.400995701439904   1.154084785424460E2  -1.155642661270612E1  -8.634003028031940E1  -1.072189878984665E1  -8.433308023141618E1  -3.539220429337217E1  -3.753770800488709  
 3.300002250000000E9    -2.861019625051750   2.212197045633055E1  -1.116030460873432E1  -1.554248631950441E2  -1.216888051771739E1  -1.677125535846279E2  -1.754897642222899E1   9.990732954178023E1  
 3.330002225000000E9    -2.114302885397966  -5.191070179625014E1  -1.119291339296071E1   1.350541089120026E2  -1.104184486596260E1   1.266138620214598E2  -1.682395113815371E1   1.303809317832475E2  
 3.360002200000000E9    -3.011664084019169  -1.400904655714474E2  -1.089723804965846E1   6.779146196943937E1  -1.163462381238073E1   7.766259351307257E1  -2.390219132781462E1   6.208050205958004E1  
 3.390002175000000E9    -1.465247260583651   1.246820731194014E2  -1.217516966494309E1  -4.582806345898481  -1.377856618227299E1  -1.483088445317672E1  -2.078774285536213E1  -8.654711899590039  
 3.420002150000000E9    -2.295920207479054   7.280846569869493E1  -1.246303812914347E1  -6.206904799525037E1  -1.225164586487805E1  -5.733254709538992E1  -1.787407717998296E1  -6.855381210213125E1  
 3.450002125000000E9    -3.955993074772466  -9.920873422609137  -1.163446588369504E1  -1.281562303876935E2  -1.341447362313617E1  -1.205606529913366E2  -2.601712018668726E1  -4.585695851416465E1  
 3.480002100000000E9    -2.894212592951667  -9.275121258350369E1  -1.233598691473399E1   1.608618789998159E2  -1.236744340016911E1   1.568476066467266E2  -2.103968266677066E1   3.087478880332852E1  
 3.510002075000000E9    -2.977511433620150  -1.594732718941626E2  -1.218410756016038E1   9.774116546427467E1  -1.045334684024261E1   1.139301672251433E2  -1.899443681225102E1   1.007585838113832E2  
 3.540002050000000E9    -3.963698640365873   9.916620663728260E1  -1.213649764036369E1   2.942983950923163E1  -1.282221287769951E1   3.372675100341829E1  -2.132829762651324E1   9.736460872917839E1  
 3.570002025000000E9    -2.870652634857434   3.830276744588742E1  -1.213083735499314E1  -2.972174552569135E1  -1.064659008212492E1  -3.298151190686632E1  -1.952168817599362E1  -6.310815275806917E1  
 3.600002000000000E9    -4.314562827981209  -3.600650274314285E1  -1.167472891544408E1  -9.593029060670536E1  -9.677682992875713  -8.626460219972846E1  -1.876981026705659E1  -1.035221649931689E2  
 3.630001975000000E9    -2.885443010323565  -1.434916202913636E2  -1.027083356945943E1  -1.683396798990148E2  -1.112977819379340E1   1.791441395668409E2  -2.946071822981363E1  -1.143610228708304E2  
 3.660001950000000E9    -2.868311222343944   1.522944541733624E2  -1.136989202208023E1   1.301594507463735E2  -8.934598073382333   1.223292306854786E2  -2.146415904340503E1   4.315993929502518E1  
 3.690001925000000E9    -4.955755531022263   5.386562881899015E1  -1.021417669962860E1   5.914870029302388E1  -9.644654238643659   6.314116777237047E1  -2.193705067876166E1   1.233156640389761E2  
 3.720001900000000E9    -2.642691371294827  -3.049395108656817E1  -1.026655275460489E1  -1.116618505285895E1  -1.128812258203008E1  -2.498041336903227E1  -2.817409699895872E1   9.595100016347327E1  
 3.750001875000000E9    -4.524863521893185  -1.066357093679327E2  -9.813937479982902  -8.267826085225049E1  -8.999585435304782  -8.449937094609273E1  -2.257704503371825E1   1.308446812834653E2  
 3.780001850000000E9    -3.543315933555862   1.254158288457945E2  -1.070429145945439E1  -1.567479987151825E2  -1.148119551671996E1  -1.424916736471833E2  -2.175039401972090E1  -6.591442094058236E1  
 3.810001825000000E9    -3.320546172466015   6.111442640810051E1  -1.163075478694440E1   1.417975472372582E2  -1.241549531040089E1   1.442826996224883E2  -1.799426240594897E1  -7.648321536178207E1  
 3.840001800000000E9    -4.779171999689040  -1.540369604320838E1  -1.037039987605435E1   7.253586446291199E1  -8.589125197169228   6.816562289597636E1  -2.325601553278673E1  -1.427598661820630E1  
 3.870001775000000E9    -1.737214281204489  -1.040492376308042E2  -1.121721568620756E1   1.721293980118087  -1.260096259562784E1   1.925726083115630E1  -2.977046774001478E1   6.083826024418630E-1  
 3.900001750000000E9    -3.157327559976431  -1.671244716524985E2  -1.240571779758139E1  -5.395259100782519E1  -1.110024324685712E1  -5.520312424261555E1  -2.433137533377433E1   7.080460025534943E1  
 3.930001725000000E9    -4.068968552925069   1.007412874053056E2  -1.182069865107113E1  -1.238573427865314E2  -8.503316255010672  -1.290153000946346E2  -1.532410601301844E1   1.339155137311191E2  
 3.960001700000000E9    -2.363100023243466   2.669254905755925E1  -1.189321605686133E1   1.698648284149527E2  -1.316911774854362E1   1.732308305928429E2  -1.883466580986747E1   1.220877585766860E2  
 3.990001675000000E9    -4.856920486525699  -4.323752687295420E1  -1.082858049888062E1   1.075342350423073E2  -9.014265463128529   9.693086794487988E1  -2.046759420803800E1  -1.186635817700792E2  
 4.020001650000000E9    -4.104037304238273  -1.402294513124774E2  -1.122643493508184E1   3.750188368403325E1  -1.016138680063039E1   3.609976707423747E1  -1.504814850920063E1  -9.663718462526079E1  
 4.050001625000000E9    -2.532137077208944   1.589073862141519E2  -1.143168513644701E1  -2.639684144740396E1  -1.296229363273625E1  -3.958679050377368E1  -1.985873886837816E1  -7.662975244719912E1  
 4.080001600000000E9    -4.354421712154388   8.104402073395039E1  -9.922787060346202  -8.998606124609530E1  -8.911632687994180  -1.035803466026915E2  -2.062018666883178E1   1.319317578619651E2  
 4.110001575000000E9    -3.004729266131546  -1.501577304536296E1  -1.042045706215076E1  -1.652973199648312E2  -1.174745096603706E1  -1.664674579921909E2  -1.590630929616207E1   9.092808972618737E1  
 4.140001550000000E9    -4.015839704144821  -7.286229111355476E1  -1.006430641421297E1   1.293299796737261E2  -1.115067689667161E1   1.293338092763011E2  -1.951299546252343E1   9.804581337394551E1  
 4.170001525000000E9    -5.497253287311603   1.603285758117487E2  -9.614399469146532   5.656324351303150E1  -8.999075845932300   5.634765965563586E1  -1.914835430015070E1  -4.654444006971686E1  
 4.200001500000000E9    -4.279339353160944   8.498518496934173E1  -1.038964068798393E1  -8.930495666079388  -1.072358710600109E1   9.080522496105255  -1.402290022484378E1  -4.995958150656605E1  
 4.230001475000000E9    -5.407460274770413   1.823087641037310E1  -9.496742543073639  -7.336545397229729E1  -9.200678274574319  -6.928346702652418E1  -1.634656002347045E1  -1.063162748513165E2  
 4.260001450000000E9    -4.659465423907719  -9.675589670706607E1  -9.927544610299226  -1.511324841818249E2  -8.172784013152260  -1.513691644910654E2  -2.456116450906490E1   7.495687927377811E1  
 4.290001425000000E9    -3.812826925922148  -1.506863635647644E2  -1.061278019181374E1   1.484496129285522E2  -8.276226732986245   1.629756297976213E2  -1.556343022990889E1   1.081147495547083E2  
 4.320001400000000E9    -6.303432797703605   1.224797240683955E2  -9.684621884471474   8.125650190600577E1  -8.186093611780503   6.889657792763443E1  -1.523824126620754E1   9.168141693420763E1  
 4.350001375000000E9    -3.176029645739884   3.498547508115959E1  -9.671907520942558   1.166499582105002E1  -7.899769886168657  -2.094303380471860E-1  -2.098716005971738E1   1.096007419236022E2  
 4.380001350000000E9    -4.142326138960684  -2.653810571872965E1  -8.613131457548853  -5.262049169401185E1  -8.181138395900499  -4.688770769806160E1  -1.892102660489257E1  -8.413297976095628E1  
 4.410001325000000E9    -5.723521470882200  -1.248518975250205E2  -9.324486861964306  -1.255913789188384E2  -9.846419252702722  -1.433988558416983E2  -1.824179129243262E1  -1.143725858291874E2  
 4.440001300000000E9    -3.005581440863426   1.601353023766571E2  -9.326747717815241   1.703158240441906E2  -1.004626627885388E1   1.644951418319298E2  -2.604249526868674E1  -1.150222754219226E2  
 4.470001275000000E9    -4.231153637854654   9.027640802232573E1  -7.942396786653331   1.017232375781650E2  -8.701299316709253   1.100113990395747E2  -1.804262414425945E1   9.525205655804730E1  
 4.500001250000000E9    -4.338034272919673  -1.270339653767441E1  -8.961705460421847   2.498250869598690E1  -1.017894380188225E1   1.870921192133917E1  -1.418976195908902E1   1.068894965809840E2  
 4.530001225000000E9    -3.436415688232564  -7.250967686013544E1  -8.758752835726220  -3.719900069724271E1  -8.796928258396191  -2.780233984541658E1  -1.937035208056928E1   7.981039971745024E1  
 4.560001200000000E9    -9.367088384526932   1.764891219575202E2  -7.719251431757961  -1.130679159920515E2  -7.408047020459791  -1.050174855062213E2  -2.387766329323133E1  -1.995108718749328E1  
 4.590001175000000E9    -5.761305255242460   8.801159123752861E1  -9.667192644454040   1.775266640198040E2  -7.226718795723696  -1.798798706551495E2  -1.248872739614593E1  -1.277991234887752E2  
 4.620001150000000E9    -5.478042281528989   3.647198273923966E1  -9.111517866641853   1.113984173216184E2  -6.703527607617200   1.157388168461216E2  -1.522761262060467E1  -1.463194419538213E2  
 4.650001125000000E9    -6.275599248368184  -1.009842648533647E2  -9.846350781929450   3.735235848693426E1  -8.599772849841591   3.193962392396081E1  -1.929548857729182E1   5.233196442082491E1  
 4.680001100000000E9    -3.458759958076213  -1.524721851195821E2  -1.001374788280605E1  -2.211773700808822E1  -8.585921736071832  -3.522741860002643E1  -1.396333189241517E1   5.391461405644365E1  
 4.710001075000000E9    -5.354237039651041   1.305186607665018E2  -9.553097827891309  -1.000052884669574E2  -8.187383380090843  -1.130250706816433E2  -3.605849626531577E1   3.913217528699613E1  
 4.740001050000000E9    -3.409248218385146   1.799167767337993E1  -1.169982205277912E1  -1.667713025176560E2  -1.297854683084432E1  -1.785472195070855E2  -2.065102252099776E1   1.402773181889821E2  
 4.770001025000000E9    -5.098145951864999  -3.397058468319700E1  -1.018498359514088E1   1.331911283803053E2  -1.096804246569738E1   1.182855241328345E2  -3.166736301943658E1   1.661497511455092E2  
 4.800001000000000E9    -8.397686352417225  -1.402002027624850E2  -1.027641853532376E1   5.531462754001127E1  -9.756199907748020   5.787337434257974E1  -1.623623638438450E1  -1.154409377842733E2  
 4.830000975000000E9    -3.667238635902198   1.458572599481739E2  -1.248586944692189E1  -1.054834286007558E1  -1.507468792549041E1  -4.104342115888563  -1.479116475827588E1  -8.192127469642693E1  
 4.860000950000000E9    -4.292720502554928   8.858011122764673E1  -1.132477411420653E1  -7.439689680810869E1  -8.926958390065785  -6.888517328434027E1  -2.321778802877171E1   1.248131431993634E2  
 4.890000925000000E9    -6.342849552064182  -3.947990350030426E1  -1.252550256773067E1  -1.433126100077714E2  -1.168883637440212E1  -1.320936505788008E2  -1.509433068817902E1   9.028185122512701E1  
 4.920000900000000E9    -2.071909699931717  -8.232506737441558E1  -1.234784406781525E1   1.576743007896475E2  -1.426434656456159E1   1.560046509060813E2  -1.337735812636668E1   9.631300102597709E1  
 4.950000875000000E9    -7.403159535484899  -1.540603564421377E2  -1.154827194591510E1   7.866261477716009E1  -8.943903654196971   8.168840543461339E1  -2.669517021519345E1   1.072107652468563E2  
 4.980000850000000E9    -6.673648817716637   9.543738660387463E1  -1.416257218581003E1   1.535512906149312E1  -1.209806081119691E1   1.389003079840195E1  -1.741758476467533E1  -7.024979059858620E1  
 5.010000825000000E9    -4.322650378292914   4.710819162372054E1  -1.298234688782511E1  -3.716588288157301E1  -1.152930680632541E1  -4.473678366462684E1  -1.521208562345718E1  -9.342920057909228E1  
 5.040000800000000E9    -1.097355845012870E1  -4.162068437137859E1  -1.181424302615756E1  -1.177512854014717E2  -1.018150042107582E1  -1.231236635833823E2  -2.009138702492519E1  -1.022187780261030E2  
 5.070000775000000E9    -4.928792149348717  -1.451480525209977E2  -1.267195618000994E1   1.751347491864382E2  -1.330319672604660E1   1.709723814795097E2  -1.556249366457581E1   5.902684142143119E1  
 5.100000750000000E9    -4.315640353189784   1.703064137745333E2  -1.279586300995886E1   1.172235132750315E2  -1.192504055886227E1   1.051117570468906E2  -1.198516390433173E1   7.610608524562349E1  
 5.130000725000000E9    -8.776396353110242   2.917242399559470E1  -1.332790454443978E1   4.406011506655438E1  -1.272188685931948E1   3.235842176453252E1  -1.688537497363969E1   5.987338509048202E1  
 5.160000700000000E9    -5.333652175516476  -1.391381512057724E1  -1.122361720977314E1  -1.531202011445860E1  -1.371837123253335E1  -3.028692418816345E1  -1.699342414025089E1  -1.748958815739054E2  
 5.190000675000000E9    -1.235893861856705E1  -7.890965189405416E1  -1.090598160364379E1  -9.763995825918821E1  -1.077451773600224E1  -1.019961856539087E2  -1.456884411734033E1  -1.556958637303942E2  
 5.220000650000000E9    -6.244134631080997   1.391388535642155E2  -1.249853155015729E1  -1.607161682532079E2  -1.241675836507207E1  -1.525619828416528E2  -1.349490006438729E1  -1.308098456967666E2  
 5.250000625000000E9    -6.598456575178233   8.271118318419804E1  -1.151261760096818E1   1.221986913746225E2  -9.692189422553648   1.349596054717673E2  -1.431504762553740E1  -6.036844576844084E1  
 5.280000600000000E9    -1.561871217069519E1  -7.735970457042639E1  -1.112446216878346E1   5.295336533115875E1  -1.033759541432986E1   4.515123422816862E1  -1.422166014140620E1   4.432770269792980E1  
 5.310000575000000E9    -4.266071931751004  -1.200598517247683E2  -1.188710689985357E1  -1.622361635964079E1  -1.156774713246955E1  -8.855973905826406  -1.648037877261569E1   7.766383222147348E1  
 5.340000550000000E9    -2.035734257473448E1   1.485153413554896E2  -1.295743356574946E1  -1.009910383574676E2  -1.245710973435037E1  -1.017379011042142E2  -1.863026646374287E1   8.933403272262254E1  
 5.370000525000000E9    -5.558914919020750   3.294371927969344E1  -1.382813355055451E1  -1.569449390016031E2  -1.452816587636570E1  -1.760510573825995E2  -1.300651772687471E1   1.764566633342834E2  
 5.400000500000000E9    -5.220648322445024  -4.218366038959291  -1.325256899428677E1   1.340761610515735E2  -1.327401227684799E1   1.332586827496463E2  -1.392537259575194E1  -1.428255038081986E2  
 5.430000475000000E9    -1.245448312111026E1  -1.204514060176089E2  -1.618893401218030E1   6.507357444174605E1  -1.770941843143574E1   4.997305149414390E1  -1.522102330443813E1  -1.206914766578645E2  
 5.460000450000000E9    -3.923872201278402   1.764039419665054E2  -1.681056347373260E1   5.057808964309265E-1  -1.796483070162288E1   6.600732504710638  -1.688452219544367E1  -1.669971079944230E1  
 5.490000425000000E9    -4.497692178744202   1.369046136578799E2  -1.644007049901163E1  -5.832343607398136E1  -1.662933915334795E1  -5.190970788055461E1  -1.017136401182638E1   6.312285985232582E1  
 5.520000400000000E9    -1.341989196075232E1   6.938902932428140  -1.903874962742047E1  -1.214443529940735E2  -2.002348855255482E1  -1.365142748932056E2  -1.113483539733795E1   8.944132800109082E1  
 5.550000375000000E9    -2.443403765162596  -3.662961081591959E1  -1.776927736605909E1   1.773477659424222E2  -2.024572170605633E1  -1.769600259362076E2  -2.614786072288398E1   1.409950430013724E2  
 5.580000350000000E9    -6.975372551317039  -7.629021152088092E1  -1.810616839905159E1   1.044414155927313E2  -1.808898655551534E1   1.063150014516801E2  -1.334133490595873E1  -1.710859218085702E2  
 5.610000325000000E9    -1.396497616981740E1   1.714102489824476E2  -1.953858324291752E1   5.329727418985199E1  -1.975392861836524E1   5.019317634076780E1  -1.054980372977657E1  -1.430524911828976E2  
 5.640000300000000E9    -3.537406014509656   1.141080017185627E2  -1.805893871504463E1  -4.732299880360345  -1.800590972199055E1   9.228947680923772  -1.788911917789066E1  -1.519936790102733E2  
 5.670000275000000E9    -5.328305444767096   8.497347935516621E1  -1.726628245135176E1  -8.219039629448318E1  -1.435892769176719E1  -7.843682640413368E1  -1.708553621446955E1   4.895068859090260  
 5.700000250000000E9    -1.324760143717596E1  -8.150472631689138E1  -1.649384428284235E1  -1.306549243158730E2  -1.823433724893184E1  -1.250650307137601E2  -6.604883659668632   5.171038964660726E1  
 5.730000225000000E9    -3.156411622290406  -1.134868791309632E2  -1.644931012498755E1   1.565824399120344E2  -1.641920255903565E1   1.631835208317252E2  -1.408978188003279E1   6.428450651662038E1  
 5.760000200000000E9    -1.237817254531017E1  -1.371023996859310E2  -1.736284709476326E1   8.888753485573791E1  -1.646731881832915E1   7.946806220992242E1  -2.171136846477547E1   1.646900726767808E2  
 5.790000175000000E9    -7.131598945989808   4.155731679289682E1  -1.424311161065187E1   2.484631137914212E1  -1.520957194018857E1   2.797216290118575E1  -1.139088312519555E1   1.631968721877998E2  
 5.820000150000000E9    -6.854192419864995   5.917215962502267  -1.523027477571295E1  -4.903660719515890E1  -1.456374047001601E1  -5.812600034380049E1  -9.974508604878716  -1.594961241349069E2  
 5.850000125000000E9    -1.662966362521577E1  -1.741624393345127E2  -1.635043400860786E1  -1.083941305321625E2  -1.627362082991942E1  -1.160932482301020E2  -2.442542110225419E1  -1.583481048797197E2  
 5.880000100000000E9    -3.376180829169304   1.589362912843206E2  -1.241071763131911E1   1.657876707893470E2  -9.640007286069068  -1.728380975108905E2  -7.173893438936829E-1   5.896415058650927  
 5.910000075000000E9    -8.346669579327463   1.310461271308692E2  -1.558589197795821E1   1.144814556182488E2  -1.629182977424296E1   1.059948988288679E2  -6.029367694763865   4.378018147061371E1  
 5.940000050000000E9    -9.386240548006613  -2.929380490194892E1  -1.506132835483585E1   5.692614389180986E1  -1.790563945585687E1   5.422084098287866E1  -1.978093587567642E1   5.974736753148404E1  
 5.970000025000000E9    -3.057605516431056  -5.952516770133190E1  -1.459795012420786E1  -2.750291759366716E1  -1.487095068333499E1  -2.187883594454740E1  -1.737518579612656E1   1.588064354334121E2  
 6.000000000000000E9    -9.685220013256512  -8.252645904891190E1  -1.482562337238756E1  -8.648671943043664E1  -1.519493916009436E1  -8.849153821604048E1  -1.161310402639218E1  -1.727924598155872E2  
