#  HZ   S   DB   R     50.0 
! Rohde & Schwarz ZVL13 2Ports - Version 3.20 - 1303.6509k13 SN: 100953
! Date: 2024-10-21 06:13:24
! Data & Calibration Information:
! Trc1:S11(Cal Off) Trc4:S21(Cal Off) Trc2:S12(Cal Off) Trc3:S22(Cal Off)
! 
! 
! 
 5.000000000000000E3    -3.231784688846638E1  -1.076449006614099E2  -1.151922003959922E-1   1.002126164565462  -8.097439502241214E-4   3.845004726056753E-1  -3.396571056981272E1  -8.937644150323628E1  
 3.000497500000000E7    -3.542363557891700E1  -1.390509898067713E2  -3.461522703832382E-1  -1.112962575394940E2  -2.671352825408840E-1  -1.113038185902591E2  -3.797304663695415E1  -1.685633692925549E2  
 6.000495000000000E7    -2.965349656111606E1   4.802178834581348E1  -3.251218925094211E-1   1.379561153233644E2  -3.667103123287822E-1   1.377438761188862E2  -3.164222348031501E1   4.038498077391846E1  
 9.000492500000000E7    -2.837113796051936E1  -7.044996895539637E1  -4.097847260210685E-1   2.752433306168054E1  -4.048758709599686E-1   2.756487340601544E1  -2.851195016890826E1  -7.664029796815295E1  
 1.200049000000000E8    -3.118698819971640E1   4.017739740443724E1  -4.997968283787737E-1  -8.294666714603089E1  -4.521843519665111E-1  -8.320415989403367E1  -3.164802083933431E1  -4.824471361651343  
 1.500048750000000E8    -3.043568367262482E1  -1.124322636664735E2  -5.561035765452175E-1   1.662288618939035E2  -5.527929870532209E-1   1.665441793282722E2  -2.830908924914045E1  -9.278237602091369E1  
 1.800048500000000E8    -2.590340457185773E1   1.458463298232089E2  -5.231127908408358E-1   5.628840025396611E1  -5.889486702277804E-1   5.606751698997273E1  -2.494154350534267E1   1.231299785593984E2  
 2.100048250000000E8    -2.798484133534579E1   3.901036138110351  -6.697198789428412E-1  -5.378278536779447E1  -7.012474096223667E-1  -5.423355707673623E1  -2.956961902372976E1   1.582233403977885E1  
 2.400048000000000E8    -3.266062592685037E1   1.702361350537987E2  -6.596470000662630E-1  -1.645928909426816E2  -6.172895693762213E-1  -1.646346269430009E2  -3.093347245456315E1   6.452657067048389E1  
 2.700047750000000E8    -3.143425366335771E1  -3.420360809596421E1  -7.739169508285029E-1   8.500494653391689E1  -6.423364107387013E-1   8.521861448064033E1  -3.157549179574183E1  -6.274849047973412  
 3.000047500000000E8    -2.714190897080902E1  -1.139727983875425E2  -8.888415994366552E-1  -2.494080415842946E1  -7.574853769422473E-1  -2.524400759431465E1  -2.620440186798145E1  -1.423883797177732E2  
 3.300047250000000E8    -2.992624182683188E1   4.931062569785595  -9.079692570607532E-1  -1.354467886731618E2  -9.361491473058677E-1  -1.355104231138520E2  -2.995583805188217E1  -7.777962610767423E1  
 3.600047000000000E8    -2.576607455831861E1  -1.314548169793995E2  -9.541808583704048E-1   1.144976244068050E2  -8.930352839129356E-1   1.139841326933052E2  -2.504063151387249E1  -1.755707946278972E2  
 3.900046750000000E8    -2.388071567990974E1   6.549170945075589E1  -9.190117623832682E-1   4.156109744806979  -9.669404882156830E-1   4.141198871687897  -2.513545766146378E1   1.007805540565694E2  
 4.200046500000000E8    -2.660858247630720E1  -1.422949024760869E1  -9.824108320162002E-1  -1.063909136190366E2  -9.822115381675367E-1  -1.058461548090026E2  -2.669201780611840E1  -5.301825345969446E1  
 4.500046250000000E8    -2.884327024591397E1   1.148759093035467E2  -1.063315686824712   1.443733235695273E2  -1.036831882746464   1.437513087113295E2  -2.769978038500654E1  -2.291348826301951E1  
 4.800046000000000E8    -2.630376248225724E1  -5.657706342848003E1  -1.079582079643050   3.383713793419840E1  -1.112097683150085   3.405489177276427E1  -2.504061758878222E1  -8.034782549063441E1  
 5.100045750000000E8    -2.693698037771934E1   1.566206964601177E2  -9.631388788162572E-1  -7.597642079513086E1  -1.021235448976130  -7.624720284343327E1  -3.021772126660975E1  -1.272481504247676E2  
 5.400045500000000E8    -2.716261351349569E1  -1.139633415635086E2  -1.158908414514975   1.735129952998483E2  -1.143635675518031   1.736190842994871E2  -2.988585753822956E1  -8.715173682701750E1  
 5.700045250000000E8    -2.224519437760120E1   1.766645770517687E2  -1.162120932917707   6.365668155211731E1  -1.215988938344449   6.384187888495970E1  -2.015160314763875E1   1.190632885234997E2  
 6.000045000000000E8    -1.954596733255969E1   1.980881024297050E1  -1.249823380162345  -4.629210380864890E1  -1.317206395504658  -4.622947556945851E1  -2.124755268785745E1   4.037904459243510E1  
 6.300044750000000E8    -2.548981824734551E1  -7.994732145455023E1  -1.241590686524783  -1.565386882534783E2  -1.239784054107985  -1.567284452122437E2  -2.591665180964034E1  -3.738966980521534E1  
 6.600044500000000E8    -2.761636160154673E1  -2.670867009518804E1  -1.275131199662413   9.351088466434634E1  -1.259299678110929   9.376448429360822E1  -3.209264411113493E1  -1.995399610773594E1  
 6.900044250000000E8    -2.928514981827123E1  -6.805718214749618E1  -1.232885356504146  -1.661310235532602E1  -1.310175656094492  -1.655555852438066E1  -2.379385383334612E1  -1.596694198790947E2  
 7.200044000000000E8    -2.757238904117672E1   9.766295420676100E1  -1.367710180835408  -1.267840411615209E2  -1.322016029415389  -1.271073471582178E2  -2.489481384104850E1  -1.628693226089423E2  
 7.500043750000000E8    -2.429188421410041E1  -1.325674634681661E2  -1.468692922748616   1.229325830874458E2  -1.395493118626756   1.230684383610141E2  -2.407917694478527E1  -1.708881504557166E2  
 7.800043500000000E8    -1.985162149225174E1   9.437237968949829E1  -1.453325450958458   1.371654798801841E1  -1.437508914515014   1.343474273485416E1  -1.888724526950925E1   9.414971369645421E1  
 8.100043250000000E8    -2.737459531153959E1  -1.909196837361411E1  -1.371375015505294  -9.698373605649282E1  -1.404473015511744  -9.706775498125047E1  -2.550410535530546E1  -3.411215395807822E1  
 8.400043000000000E8    -2.371694352889956E1  -1.465906968559609E2  -1.424058084064111   1.531984367272000E2  -1.445367622119743   1.528044994293842E2  -2.174476660539792E1  -5.721363884040932E1  
 8.700042750000000E8    -2.382682064428187E1  -5.134940067491782E1  -1.480724109313678   4.324304817322300E1  -1.444217957315468   4.253418919779896E1  -2.317518670682652E1  -7.744738163335192E1  
 9.000042500000000E8    -2.384360900251708E1  -1.618574687753184E2  -1.515739216324005  -6.693194521105785E1  -1.480009510299637  -6.701881312484353E1  -2.276193296831498E1  -1.653816261013311E2  
 9.300042250000000E8    -3.375165730186655E1  -8.706897516505063E1  -1.497671622097487  -1.770635392976626E2  -1.471441964154555  -1.773966568472960E2  -3.346469353105260E1  -1.234884390344779E2  
 9.600042000000000E8    -2.860397285506814E1   1.743184701446751E2  -1.546099529715380   7.201449652659476E1  -1.538449971489835   7.245596064837278E1  -2.391103802059287E1   1.074892814254395E2  
 9.900041750000000E8    -1.749249353599690E1   5.947510760815015E1  -1.657967382518470  -3.732290922204288E1  -1.575612489357355  -3.717549338649166E1  -1.705516699757865E1   4.583462626957725E1  
 1.020004150000000E9    -2.442606004207931E1  -8.902594475485115E1  -1.586763228119748  -1.467986586288267E2  -1.552047049451704  -1.468537525145028E2  -2.347189952725293E1  -5.864146018976894E1  
 1.050004125000000E9    -3.085048198841449E1   5.393319906636111E1  -1.551981312267566   1.023114586227617E2  -1.556598023106201   1.024538711377197E2  -2.187163544339738E1  -6.082439150075376E1  
 1.080004100000000E9    -3.116966162814008E1  -9.866588870973469E1  -1.601738506830509  -8.025333030217995  -1.606551263668439  -7.577837252653537  -2.729425687828877E1  -1.563647092149227E2  
 1.110004075000000E9    -2.083920326665912E1   1.759391306205812E2  -1.768777621498152  -1.177499795574619E2  -1.684983665672927  -1.176182670546818E2  -1.946984911927175E1   1.568880880228573E2  
 1.140004050000000E9    -2.708983094756575E1  -8.474320154982949E1  -1.716476628378712   1.322354025532539E2  -1.669591281594168   1.318672400260658E2  -2.526366795013126E1  -1.654138147221970E2  
 1.170004025000000E9    -1.901027888047657E1   1.083756611394113E2  -1.753290555452307   2.259392009915812E1  -1.741241795585247   2.228729744774082E1  -1.848793167138716E1   8.737541456561058E1  
 1.200004000000000E9    -2.323531494040975E1  -1.517540095186054E1  -1.678279039513413  -8.773182299051621E1  -1.693570054109073  -8.789708638661365E1  -2.263084971168014E1   1.192899824147911E1  
 1.230003975000000E9    -2.507474182220821E1  -9.819524201946099E1  -1.769008834201222   1.626710833974838E2  -1.751332767919011   1.626994936358425E2  -2.356551308489707E1  -8.635727236131940E1  
 1.260003950000000E9    -2.259911544813783E1   1.369186429364163E1  -1.801019602513472   5.206990043762843E1  -1.841917958799247   5.162605007430113E1  -1.919445013872524E1  -8.849122146789969E1  
 1.290003925000000E9    -2.113193816806235E1  -1.686035618871863E2  -1.767849876276596  -5.749080549337191E1  -1.778735451357481  -5.760734557931603E1  -2.548326394317816E1  -1.651396397121964E2  
 1.320003900000000E9    -3.985438599164222E1  -6.458484926135326E1  -1.839667313793530  -1.679089107165269E2  -1.837766974454171  -1.682368380919932E2  -2.260590911124340E1   1.633436505164499E2  
 1.350003875000000E9    -3.044648972657287E1   1.509027422089619E2  -1.872172516304628   8.149327696831494E1  -1.943523324461334   8.157212692850480E1  -2.271047531253355E1   1.743451251118465E2  
 1.380003850000000E9    -1.732399199379937E1   8.189585177612024E1  -2.025554411729853  -2.821842604202279E1  -1.990784246114839  -2.799383454411672E1  -1.624680151570014E1   3.221011929481657E1  
 1.410003825000000E9    -2.102424966702636E1  -6.161358410714333E1  -1.942692110542035  -1.381413173293373E2  -1.880003675763754  -1.380099237714950E2  -2.350705010788314E1  -3.435553729527239E1  
 1.440003800000000E9    -3.177952502325885E1   5.511561829395184E1  -1.945651914878972   1.121974238096128E2  -1.980699722424305   1.124961045822126E2  -2.173264397934960E1  -1.088623189233335E2  
 1.470003775000000E9    -3.613937002358897E1  -1.615666260209596E2  -1.852025790081229   1.765885751820668  -1.812139999800615   1.595994233921820  -2.384353040074019E1  -9.105715862583466E1  
 1.500003750000000E9    -2.112264332524926E1  -1.728968154078818E2  -1.936377469686535  -1.077564370280583E2  -1.941495933520391  -1.076524531408732E2  -2.316854687927912E1   1.205867836545505E2  
 1.530003725000000E9    -3.295225868234937E1  -1.818489283910157E1  -2.085215751210007   1.417651597069712E2  -1.963054991740246   1.422243731965653E2  -2.345257919304858E1   1.421843641252722E2  
 1.560003700000000E9    -1.969303121592515E1   1.216104920036497E2  -2.097825101441674   3.198223053716336E1  -2.048745405962207   3.204998665621604E1  -2.176579698988170E1   1.055137202825808E2  
 1.590003675000000E9    -2.457962989098215E1  -7.853500726578586  -2.083183215178839  -7.741752582454035E1  -2.102380602282191  -7.776450646717117E1  -1.759215920580651E1   3.886737545913119  
 1.620003650000000E9    -2.017179779506892E1  -6.964509426936768E1  -2.018629974273697   1.724565199001086E2  -2.113102168583526   1.721900226754146E2  -3.947162745245252E1  -1.495541051292599E2  
 1.650003625000000E9    -2.396268916888191E1   4.950319127762933E1  -2.104707182851151   6.208620778835797E1  -2.094141389644353   6.177845574408081E1  -2.087367398447916E1  -1.387753339861931E2  
 1.680003600000000E9    -2.633458984242903E1  -1.324361046676929E2  -2.158091792742390  -4.790127062400458E1  -2.091849469372359  -4.784507167726004E1  -2.294500710791775E1  -1.573736271337707E2  
 1.710003575000000E9    -2.965507590643751E1   4.338696772082510E1  -2.086380151755402  -1.572756865439553E2  -2.098385266890725  -1.574371141786858E2  -2.564596356906239E1   1.143516673929712E2  
 1.740003550000000E9    -2.266759220208634E1   1.078094866883341E2  -2.122955981702131   9.218898241350138E1  -2.050721772714272   9.144573481838670E1  -2.035066888535206E1   1.728051747575109E2  
 1.770003525000000E9    -1.950798361903842E1   1.006749346009418E2  -2.120101552426547  -1.855670283565583E1  -2.123611183785779  -1.841815010391813E1  -2.689728359571155E1   5.082072127349144E1  
 1.800003500000000E9    -2.240912605726473E1  -8.139397746179046E1  -2.113046239660072  -1.279083732061117E2  -2.106221708246794  -1.281880895604202E2  -2.104657635163759E1  -3.671978994304091E1  
 1.830003475000000E9    -3.138838550908625E1   1.549100415998755E2  -2.109091187669301   1.220688452945177E2  -1.968816559250915   1.221385510769564E2  -2.768366743249995E1  -7.149731960506657E1  
 1.860003450000000E9    -2.685839027204937E1  -1.091333057293213E2  -2.062242019384092   1.215804698600801E1  -2.040420312251658   1.223614440371751E1  -2.201982086374680E1  -1.154531309292098E2  
 1.890003425000000E9    -2.137568552688320E1  -1.257843263904597E2  -2.203922619763248  -9.838245462523960E1  -2.099813708777324  -9.845703844247035E1  -3.563822414269697E1   1.261659936460532E2  
 1.920003400000000E9    -2.578311609772543E1   7.867752705041271  -2.143402440386697   1.512419379620607E2  -2.112843894941723   1.516346448748379E2  -2.417812544604514E1   3.927799556731124E1  
 1.950003375000000E9    -2.351474079310042E1   7.706462829343157E1  -2.125960859602839   4.129838732040792E1  -2.049689211908024   4.087953759420754E1  -2.306706052007344E1   1.013923473825023E2  
 1.980003350000000E9    -2.151307594311741E1   1.059146101223078E1  -2.123151868939407  -6.850741219091246E1  -2.042957144817162  -6.886166127468944E1  -2.181784838710004E1   9.045227742503002  
 2.010003325000000E9    -2.608967713154713E1   2.898026921457702E1  -2.159942228813402  -1.787541414647564E2  -2.091391853142511  -1.792471419521764E2  -3.070377029872969E1   4.368654312925951E1  
 2.040003300000000E9    -2.246235946150323E1   9.289258363044701E1  -2.183302927065326   7.088182422762746E1  -2.127103552202723   7.055120905753321E1  -3.082219295763971E1   1.566893468731785E2  
 2.070003275000000E9    -2.450860962855291E1  -1.730126415225460E2  -2.238642905743229  -3.953239773975753E1  -2.136154010529857  -4.015469589458559E1  -2.127466618579900E1   1.718161588889327E2  
 2.100003250000000E9    -2.497850232655224E1   1.720737011490989E2  -2.165151356137060  -1.494636356267112E2  -2.129150222330703  -1.498386089365020E2  -2.409011148614503E1   1.157281718039143E2  
 2.130003225000000E9    -2.164237714921756E1   1.705128861645721E2  -2.151563342472250   1.005878659337179E2  -2.143542266654700   9.992835369552303E1  -2.262701796484532E1   1.714207908404092E2  
 2.160003200000000E9    -3.639492107177160E1  -1.454244062926118E2  -2.168775174836447  -9.612661808577929  -2.224813185559426  -1.054741582996568E1  -2.610672786695391E1   1.108443971996419E2  
 2.190003175000000E9    -1.946456035687253E1  -4.308126669675421E1  -2.269481379654445  -1.198324116060233E2  -2.199488752866286  -1.209331438005040E2  -2.239988115390757E1  -7.144245573125966E1  
 2.220003150000000E9    -2.618159606535656E1  -6.731533224052078E1  -2.267710970317963   1.301107598841340E2  -2.220570105513118   1.298192724497680E2  -2.367846229734901E1  -1.151932150099957E2  
 2.250003125000000E9    -2.458479992622675E1  -1.202139993907894E1  -2.251483287921770   2.003373882291293E1  -2.225589972290780   1.957476518930574E1  -2.275337989403374E1  -1.214653186041753E2  
 2.280003100000000E9    -2.362808394265016E1   3.170506454096203E1  -2.203935326237537  -9.028971643009524E1  -2.285992616976140  -9.134691071154411E1  -2.790887810501445E1  -7.549001684163471E1  
 2.310003075000000E9    -2.246762498326201E1   9.411272220529419E1  -2.278646391240319   1.593914419583033E2  -2.266398590697901   1.591870659890396E2  -2.443682119207810E1  -9.106838043025869  
 2.340003050000000E9    -2.134552864814262E1   8.798018545621817E1  -2.312142716760933   4.948444353523698E1  -2.247405349261472   4.919415948776395E1  -4.073563218379897E1   1.525314676481705E2  
 2.370003025000000E9    -2.550164567356586E1   9.344991485792995E1  -2.341512151250917  -6.108305211270492E1  -2.321728391667128  -6.123839789296710E1  -2.105869655210134E1  -7.265553665011947  
 2.400003000000000E9    -2.372433819069109E1   1.533865953153173E2  -2.396500182447695  -1.709339538716841E2  -2.328231590853907  -1.709301298115303E2  -2.421301843889712E1   2.240546616169197E1  
 2.430002975000000E9    -2.223115061781052E1  -1.435816472469015E2  -2.361829572645582   7.903171111273321E1  -2.326419173320145   7.834166811558802E1  -2.679907643576858E1   5.808229401092140E1  
 2.460002950000000E9    -2.531396687059628E1  -9.492393713905364E1  -2.353332715130210  -3.116008075016636E1  -2.381326681480108  -3.172825104633501E1  -2.663341153977621E1   1.525236696927975E2  
 2.490002925000000E9    -2.525598566098489E1  -1.266364181983772E2  -2.401585794939711  -1.410565536556443E2  -2.393384712315943  -1.411554688930390E2  -2.215447117082686E1   7.072576457807068E1  
 2.520002900000000E9    -3.517293187238836E1  -1.028505535219722E2  -2.444184940770906   1.087393765723621E2  -2.335157118193484   1.091567660814043E2  -2.670407371493895E1   1.253339508618394E2  
 2.550002875000000E9    -1.893465219543793E1  -5.583938993531196  -2.473352174303698  -8.249792828441029E-1  -2.400601122543524  -1.950070999586249  -2.035647211070879E1   1.355595573854742E2  
 2.580002850000000E9    -2.276296609950018E1   3.841331842103062E1  -2.481360274370254  -1.115127078361898E2  -2.442971450932086  -1.123218359363288E2  -2.378407602528969E1  -1.275602134275024E2  
 2.610002825000000E9    -2.692678508630497E1   1.045159017000275E1  -2.448481290048201   1.382909107006103E2  -2.504859523997172   1.380130120106687E2  -2.808562583035254E1   1.725774307766198E2  
 2.640002800000000E9    -2.673457711534585E1   5.371374816495759E1  -2.398302638777348   2.823123933513907E1  -2.479701610438467   2.755538252928944E1  -2.165314989742550E1  -1.666483998171813E2  
 2.670002775000000E9    -2.249704208184676E1   1.205251951073938E2  -2.499458524782458  -8.141624294413998E1  -2.495715201918099  -8.275495946339308E1  -1.854437738123511E1  -1.492951198442784E2  
 2.700002750000000E9    -1.943055680795455E1   1.571965074324298E2  -2.492458670621086   1.678327297882626E2  -2.636830306738191   1.667355024322964E2  -2.259725173268999E1  -5.821096238937474E1  
 2.730002725000000E9    -2.414565018680212E1   9.653505564242326E1  -2.527552374476719   5.782294526518851E1  -2.570294673600533   5.722280033797585E1  -2.371814965182654E1  -1.307361855494235E2  
 2.760002700000000E9    -2.641768775856609E1  -1.637245132667982E2  -2.556160721002016  -5.271554815083070E1  -2.540535653235057  -5.341553632387066E1  -2.411183232576622E1  -7.700849812159811E1  
 2.790002675000000E9    -2.675630114686615E1  -1.311713923214673E2  -2.576875839804294  -1.629125224644999E2  -2.593611374767197  -1.627182338245707E2  -2.082232542685440E1  -6.418931625565719E1  
 2.820002650000000E9    -1.822745035361837E1  -9.930372636862326E1  -2.674867508364902   8.684867387951795E1  -2.598854118093708   8.681099807874294E1  -2.032773245448196E1   8.588416843726626E-1  
 2.850002625000000E9    -3.453066824826407E1  -6.153165134002175E1  -2.670107597331308  -2.321727272307830E1  -2.720144729081257  -2.327182535817007E1  -2.835298229996812E1   1.794892097942313E1  
 2.880002600000000E9    -2.421709777565845E1  -9.948804461847105E1  -2.757410828007904  -1.335590936412114E2  -2.712872369536978  -1.331129249244900E2  -2.244788819003264E1   1.203865707359247E1  
 2.910002575000000E9    -2.451552738341307E1   4.019251468549873E1  -2.751835333791526   1.159157185972870E2  -2.794922347954368   1.157970746669340E2  -2.063692496826176E1   7.358003767671350  
 2.940002550000000E9    -1.562243519429504E1   3.143893491745070E1  -2.936859260225108   6.912514020684829  -2.909895738030166   6.779514176759388  -1.672281448707989E1   9.815408321864311E1  
 2.970002525000000E9    -2.252570463553291E1   8.343949226692271E1  -2.883166866833411  -1.035063092512077E2  -2.848556419145297  -1.041046536564238E2  -2.306696736256772E1   1.109443536174702E2  
 3.000002500000000E9    -2.284827567103610E1  -3.353650523061558E1  -2.180331927596442   1.554430661481453E2  -2.245382452749293   1.548105392219719E2  -2.617239897636700E1  -1.436267990203827E2  
 3.030002475000000E9    -2.277767219969745E1   1.683698452684217E2  -2.278860595255759   4.459024521643083E1  -2.468519750259061   4.374892425923526E1  -2.272071119489607E1  -1.130100673678052E2  
 3.060002450000000E9    -2.302871403899995E1   1.724727918374791E2  -2.364149385730422  -6.567926790819843E1  -2.486503283476927  -6.602657771470022E1  -1.715080362756461E1  -1.296946118026540E2  
 3.090002425000000E9    -2.220247992913400E1  -1.533108225569369E2  -2.509011120834702  -1.753755941828201E2  -2.580057808602382  -1.761216819333092E2  -2.229676225559602E1  -7.402111557709814E1  
 3.120002400000000E9    -1.975800355964721E1   7.320682910327639E1  -2.634601103023840   7.417184597239942E1  -2.721330395503580   7.434427640958421E1  -1.602498275526935E1  -9.236265752270479E1  
 3.150002375000000E9    -2.842276073550871E1  -2.731719705104321E1  -2.537394651856026  -3.505254341650306E1  -2.631106123119773  -3.509772838643782E1  -2.286794464916116E1   7.519434905437564E1  
 3.180002350000000E9    -2.459425676784407E1  -1.082905760849734E1  -2.493371678859865  -1.456413813817262E2  -2.635742336138851  -1.455201969276776E2  -3.507832972531770E1  -8.737315302596939E1  
 3.210002325000000E9    -1.957818137031250E1  -4.337601409021540E1  -2.810412646429235   1.039267156978917E2  -2.855749829685871   1.046491052539120E2  -1.809698441826281E1   1.898530256162979E1  
 3.240002300000000E9    -1.865041843643286E1   1.405929729220842E2  -2.857831506603921  -5.092242166749077  -3.040253926514061  -6.589716712586282  -2.152422750935401E1   4.088598134970416  
 3.270002275000000E9    -2.658944507872219E1  -1.438577281586648E2  -2.845605648759058  -1.158077145377041E2  -2.950890005981630  -1.156761351706374E2  -2.163554872804028E1   1.608413624977844E2  
 3.300002250000000E9    -1.764498587143056E1   1.109883029848793E2  -2.775446171696424   1.340471613832851E2  -2.976506880859750   1.336978448325129E2  -2.448068731705326E1  -1.937230967285847E1  
 3.330002225000000E9    -1.624966579962628E1   5.888121385044822E1  -3.028577851156244   2.479549978776560E1  -3.155270812050961   2.533556808063662E1  -1.898666895229607E1   1.398276172268403E2  
 3.360002200000000E9    -2.438580458086170E1  -1.137602383527741E2  -3.192943883276951  -8.658948131561158E1  -3.297713320899748  -8.578412122619997E1  -1.674509807854714E1   8.487629370548511E1  
 3.390002175000000E9    -1.763962630966660E1  -5.597658137908906  -3.132844289079600   1.636937526455787E2  -3.200078994609700   1.651486305404613E2  -1.873133770257283E1   1.744923589789073E2  
 3.420002150000000E9    -1.846956593587096E1  -1.423346793655443E2  -3.092496861013227   5.444284608800618E1  -3.278374655201971   5.553886101950990E1  -2.641488228066358E1   1.138790707560932E1  
 3.450002125000000E9    -2.414476229821404E1  -1.791002256917349E2  -3.281053457366327  -5.689806491000603E1  -3.341172349653033  -5.465903342301418E1  -2.783256409997604E1  -1.189348241509485E2  
 3.480002100000000E9    -2.734214979001366E1  -1.412230198384989E2  -3.482810517802971  -1.667393732290333E2  -3.424464411719930  -1.661682633291443E2  -2.221183957019395E1  -1.533536239096676E2  
 3.510002075000000E9    -1.506804238785653E1   8.005176026181137E1  -3.801517394861673   8.456567056147631E1  -3.656726652109281   8.409902342737462E1  -1.276024251220751E1  -1.128654544575328E2  
 3.540002050000000E9    -2.151917257195572E1  -1.400891770607984E1  -3.532117490031703  -2.444580805330546E1  -3.536744477049228  -2.469805355024833E1  -2.268040871192439E1   1.147790211521523E2  
 3.570002025000000E9    -2.479893593868278E1   1.301587408461597E1  -3.459681605631436  -1.357857768077125E2  -3.555904174146798  -1.355318526326773E2  -4.217628214790872E1   1.442213500657154E2  
 3.600002000000000E9    -1.723828013779928E1  -3.801411222467504E1  -3.801270568829586   1.134227058576063E2  -3.692836215737763   1.126962346640466E2  -2.314877253983609E1   4.138668019485834E1  
 3.630001975000000E9    -1.470702663652046E1   1.787489188343107E2  -4.067013297441047   6.010303148084830  -4.179848775149207   5.907670005097662  -1.210758453477770E1  -3.929533096598463E1  
 3.660001950000000E9    -3.100721603668296E1  -1.308343885825792E2  -3.724580715193163  -1.053342853673791E2  -3.712190887554659  -1.049944025355077E2  -3.459784380247332E1  -1.910818604271459E1  
 3.690001925000000E9    -1.635017256805533E1   1.202286423235898E2  -3.822559925344866   1.439485917508797E2  -3.886052324863817   1.448872407824921E2  -2.356259842300307E1  -7.551449449458201E1  
 3.720001900000000E9    -1.549443119669500E1   4.708771104282537E1  -4.096792586630617   3.297077970858087E1  -4.135139314081852   3.348635207549611E1  -1.769178727025705E1   1.582591791785560E2  
 3.750001875000000E9    -2.246932095785544E1  -6.461430973806701E1  -4.104470203465788  -7.537630369029112E1  -4.071194327289914  -7.439915011745299E1  -1.585750831481513E1   6.461082850405218E1  
 3.780001850000000E9    -1.553504198605435E1   1.511845784890304E1  -4.379029608450437   1.730637803931858E2  -4.291476102201338   1.729919781417846E2  -1.619207242768746E1   1.010588206161489E2  
 3.810001825000000E9    -1.503189778711219E1  -1.174858964957210E2  -4.397904869980561   6.447245807689768E1  -4.356392470951979   6.399851372488157E1  -1.731112717540310E1   4.561777863928830E1  
 3.840001800000000E9    -1.627333888192512E1   1.341978765334573E2  -4.497277715801687  -4.626390932509456E1  -4.531118660411746  -4.472356613167682E1  -1.615029844644630E1  -8.925060980597556E1  
 3.870001775000000E9    -2.848882309438539E1   1.524593062563779E2  -4.503809804400254  -1.575950540684790E2  -4.396494638118309  -1.571052050051968E2  -1.851942227598706E1  -1.584538926023944E2  
 3.900001750000000E9    -1.209227118134267E1   9.465899932090133E1  -5.073428497532351   9.584012238199964E1  -4.866520678216831   9.578129551990708E1  -1.438279584358987E1  -1.489910126554472E2  
 3.930001725000000E9    -1.736614323944705E1  -2.308629877790171E1  -4.783721050690068  -1.206190278501356E1  -4.731365219711333  -1.302212239715478E1  -1.402584858807225E1   1.531531149322707E2  
 3.960001700000000E9    -4.573758411434501E1  -1.046582357607777E2  -4.711840328541412  -1.253034902276365E2  -4.628832398614847  -1.255885739703773E2  -2.573413970401573E1  -1.187451985020320E1  
 3.990001675000000E9    -1.408697847268802E1  -4.964050349124018E1  -5.189342922212095   1.243871147679170E2  -5.104483955703627   1.232906375058675E2  -1.789632533215476E1   1.411601734795710E1  
 4.020001650000000E9    -1.208437845154935E1  -1.558646950306733E2  -5.516127184800579   1.780193285021657E1  -5.403074714467498   1.801684107029345E1  -1.110086677085358E1  -3.478942037101282E1  
 4.050001625000000E9    -2.151796016464678E1   1.168984438474642E1  -4.984683384307697  -9.149387849065919E1  -5.040159024285420  -9.156706881056073E1  -1.456311750141919E1  -9.060335681872657E1  
 4.080001600000000E9    -2.134449060786714E1   1.245130153629103E2  -5.350768830064424   1.567924952152428E2  -5.478511250806660   1.569884661278672E2  -2.018708828908008E1  -7.678304771310991E1  
 4.110001575000000E9    -9.981413900352324   3.455569301482375E1  -5.633938315504802   4.846284611194319E1  -5.582338223551904   4.882490023645936E1  -1.625352566662624E1   1.561133140294153E2  
 4.140001550000000E9    -1.895128509617232E1  -3.679914892710583E1  -5.512763180173690  -5.975962746895280E1  -5.569472587295732  -5.886884283936714E1  -1.133287566235657E1   6.596979664228522E1  
 4.170001525000000E9    -1.407322894192755E1   3.969782936988057E1  -5.787111930125431  -1.719840582353322E2  -5.484794004400666  -1.712201037475193E2  -1.269819062378200E1   6.032092735079759E1  
 4.200001500000000E9    -1.374482806827940E1  -1.124703119530694E2  -5.828734508377321   8.024776780898357E1  -5.748141421777260   8.058677032240530E1  -1.284309410982210E1   2.661054680461100E1  
 4.230001475000000E9    -1.093013735502887E1   1.298798148208669E2  -5.796912278341988  -2.705368691833268E1  -5.568076611241312  -2.724034299785851E1  -1.613791924467779E1  -7.405424607281576E1  
 4.260001450000000E9    -1.914670317321160E1  -1.733059465734717E2  -5.639158927206302  -1.399597759853421E2  -5.520972989780019  -1.397647556347618E2  -1.671796399630719E1   1.755346120505052E2  
 4.290001425000000E9    -1.164490369092209E1   1.060667932593070E2  -6.349412492497154   1.122492165427462E2  -6.039501549726775   1.130256879321900E2  -1.326826734329288E1  -1.774062799360761E2  
 4.320001400000000E9    -1.120755879713703E1  -4.452388835117244E1  -6.079671990110673   6.062092819618618  -5.826948380465530   5.478264296258154  -1.024678364779350E1   1.395454542355946E2  
 4.350001375000000E9    -2.016740117662437E1  -1.437050279659367E2  -5.262794652649723  -1.057630827218460E2  -5.359367989144031  -1.061614455348280E2  -1.538041671631904E1   8.087957828880725E1  
 4.380001350000000E9    -9.778783603349705  -6.008549940305412E1  -6.089980406611753   1.443479678645462E2  -5.945289215478990   1.429426766485132E2  -2.361273018604702E1   2.113593851473544E1  
 4.410001325000000E9    -1.363330612910892E1  -1.558795942429370E2  -6.058409706685741   3.700814024404607E1  -5.925158142789934   3.666341519475515E1  -1.155334257801691E1  -6.052606173462174E1  
 4.440001300000000E9    -1.489072798781406E1   1.633266101478977E1  -5.721156978378276  -7.233111847282079E1  -5.490737070639319  -7.396973262127990E1  -8.061509185516156  -1.041395215400116E2  
 4.470001275000000E9    -1.651129607367088E1   1.084700623989987E2  -6.093078970570414   1.737980332777680E2  -5.915195830178519   1.734131001877714E2  -1.330455499598714E1  -1.523058213319203E2  
 4.500001250000000E9    -7.521023924699572   2.860298466574458E1  -5.894462683563983   7.089351733670344E1  -5.852895031732703   7.043431888209688E1  -1.349217444082857E1  -1.588904256311643E2  
 4.530001225000000E9    -2.881373556933359E1  -8.534254902276882E1  -5.634881585904661  -4.353377585140080E1  -5.653894929688819  -4.509344602698600E1  -1.585029031942094E1   5.633601209256084E1  
 4.560001200000000E9    -1.583832337356679E1   3.649868512134557E1  -6.126350146412703  -1.547946264181380E2  -5.988717982670724  -1.555247887034815E2  -1.171590656990640E1   5.301231933705711  
 4.590001175000000E9    -1.151519685521004E1  -1.494830559545947E2  -6.735921603976330   9.942133768155907E1  -6.713623616018584   9.813288105043813E1  -1.422347904229312E1  -3.677772929568204E1  
 4.620001150000000E9    -1.035575095964569E1   1.212839396844730E2  -5.755310737611875  -8.409922452184064  -5.706856582452072  -7.779445681608037  -1.081591792121379E1  -5.792261636113640E1  
 4.650001125000000E9    -1.717320213051256E1  -1.676184513030656E2  -5.930779176987393  -1.230260354002909E2  -5.833706896928738  -1.241225059231205E2  -1.448244721468964E1  -1.634570475061267E2  
 4.680001100000000E9    -1.503103584156315E1   6.049701356229751E1  -6.758002767982250   1.305227045609926E2  -6.585501980841989   1.285638908894836E2  -1.579418006569925E1   1.221857591952174E2  
 4.710001075000000E9    -9.197064733205652  -5.319598173861865E1  -6.017513970854936   2.414080407772526E1  -5.933344119909896   2.326599927849030E1  -1.390052446167093E1   1.087803876083779E2  
 4.740001050000000E9    -1.943531355488604E1  -7.829254055537464E1  -5.599491680621183  -8.937886540651037E1  -5.699367420069329  -9.315841600405025E1  -1.079458471392906E1   4.996984322353961E1  
 4.770001025000000E9    -1.109031232525255E1  -6.835771429767362E1  -6.051391119073885   1.583985837964080E2  -6.306506772455415   1.586626671131535E2  -2.367527502539841E1  -2.410032273177697  
 4.800001000000000E9    -1.638318441130188E1   1.433411072731958E2  -6.347503536580301   5.301169426111110E1  -6.477650905302752   5.278058534294188E1  -2.558244333036264E1  -1.253977808228005E2  
 4.830000975000000E9    -1.434640544520897E1   5.680362986021781E1  -5.936459418426367  -5.667367799267335E1  -6.115825799870927  -5.665520967347649E1  -1.009440270825213E1  -1.245327797707834E2  
 4.860000950000000E9    -1.297571736288319E1   7.353528277145209E1  -6.293605067326720  -1.677873260157309E2  -6.307563154062049  -1.684640253976102E2  -1.131527192681344E1   1.541340934870271E2  
 4.890000925000000E9    -1.113841706311017E1   2.345568256910716E1  -6.206272911253152   8.399772795065456E1  -6.240961666279618   8.408197203580039E1  -2.107614558034709E1   1.603936366091276E2  
 4.920000900000000E9    -1.731782210913554E1  -1.295846751332814E2  -5.842206135956511  -2.804693495107258E1  -5.747865016526478  -2.858974655311587E1  -2.306308042602858E1   1.029779588035310E2  
 4.950000875000000E9    -1.636682188231254E1  -1.110307830715929E2  -6.309721222952877  -1.391486987744562E2  -6.395646985844869  -1.407406248299461E2  -1.446488800422662E1  -3.966203500972973E1  
 4.980000850000000E9    -1.134384972469755E1  -1.548360019339234E2  -6.488120350699238   1.145411204175362E2  -6.612194999227500   1.131974237492637E2  -1.961719475069102E1  -1.149919647046819E2  
 5.010000825000000E9    -1.493561858830828E1   1.417216770738679E2  -5.928587364788727   6.546084178842601  -6.210017779055612   5.187474434611128  -1.843282386935394E1  -5.222916757862753E1  
 5.040000800000000E9    -2.800742338682296E1   3.502923822201079E1  -6.219112734047140  -1.081914701151379E2  -6.356959357619509  -1.082340347210453E2  -1.419306036847926E1  -1.482466392216158E2  
 5.070000775000000E9    -1.173341896194451E1   7.012064210738723  -6.507563774504747   1.464748680863687E2  -6.780040130163187   1.466791324412769E2  -1.849404526991859E1   3.744913010070320E1  
 5.100000750000000E9    -1.042977039532806E1  -3.926958652505789E1  -6.092146906875524   3.588584636159585E1  -6.079388622727538   3.713666960618489E1  -2.468922273268201E1   1.534613237935306E2  
 5.130000725000000E9    -1.586849054554403E1  -8.609266016912994E1  -5.968575985624884  -7.594629569467941E1  -5.904768978673914  -7.582976252264002E1  -1.705146281673855E1   3.860455688781401E1  
 5.160000700000000E9    -2.386769675636926E1  -1.435156569797991E2  -6.669660891938941   1.722497279862573E2  -6.848113385502373   1.720624410206791E2  -1.772216726372723E1  -8.480284614820201E1  
 5.190000675000000E9    -1.126084814363818E1   1.293979236735056E2  -6.700080697700812   6.768817820051318E1  -6.872975881768507   6.803995415874839E1  -1.850192005917107E1   1.044689681499396E2  
 5.220000650000000E9    -1.203188465121806E1   9.069706495750451E1  -6.521858213850752  -4.386569143672828E1  -6.722380820640630  -4.463101888234903E1  -1.606837441572468E1  -1.166003252396231E2  
 5.250000625000000E9    -1.492030395894270E1   5.164776688560814E1  -6.714742571295523  -1.533369308144716E2  -6.954805713568685  -1.532093754890053E2  -1.309906388017703E1   1.319019448740048E2  
 5.280000600000000E9    -1.576212365111421E1  -2.692461669969737E1  -7.011337305936636   9.790509138679495E1  -7.083983257585899   9.832348282825411E1  -2.362279949171298E1  -9.005782770476642E1  
 5.310000575000000E9    -9.995914903978219  -9.276189414510311E1  -6.594692208961800  -1.136041296673304E1  -6.696386279818547  -1.116181903537604E1  -1.363720626595711E1   1.335023895647841E2  
 5.340000550000000E9    -1.230218748441421E1  -1.234133389783548E2  -6.934802698008540  -1.237211538045313E2  -7.015690755575538  -1.228719329538665E2  -1.702753372283064E1  -6.128597410491995E1  
 5.370000525000000E9    -1.616116110740567E1  -1.650872667589848E2  -7.307264592212065   1.291070818727496E2  -7.405923362380937   1.301066506818036E2  -1.553867120819171E1  -1.769643318360251E2  
 5.400000500000000E9    -1.504167053598631E1   9.832287822268044E1  -7.384325424851751   2.380765735696560E1  -7.244055378221473   2.331910362473196E1  -1.830539159227543E1  -1.912666742679207E1  
 5.430000475000000E9    -1.042642741822379E1   3.569161588073097E1  -6.873694515370166  -8.587771282255116E1  -7.080603926639661  -8.738692507104193E1  -1.107408055652809E1  -1.566083649485087E2  
 5.460000450000000E9    -1.028208873787007E1   5.060169044894257  -7.132856481300230   1.634864452198623E2  -7.233405767331377   1.624418682492345E2  -1.755576953923547E1   2.414568581216448E1  
 5.490000425000000E9    -1.280392847949505E1  -5.153541091982824E1  -7.276002849299266   5.280454143900062E1  -7.334451376342822   5.332325235977245E1  -1.656195687078246E1  -1.488116045526636E2  
 5.520000400000000E9    -1.178528448042444E1  -1.247095946782613E2  -7.296239338078494  -5.447083926696471E1  -7.444469621674545  -5.362258327707348E1  -1.647684473888075E1   6.133014757609982E1  
 5.550000375000000E9    -1.194231303216781E1   1.736781422713475E2  -7.512177886361337  -1.628107613609426E2  -7.604459577048861  -1.629283126209134E2  -1.749989479552080E1  -1.126175022808834E2  
 5.580000350000000E9    -1.309899580408189E1   1.419472782208940E2  -7.352085903156381   8.940535722355608E1  -7.328660083957622   9.067311441731147E1  -1.590054040241495E1   6.833495098012445E1  
 5.610000325000000E9    -1.531053128878120E1   7.089224848372292E1  -7.176261972644559  -1.956103489335159E1  -7.133909315508297  -1.994442100254895E1  -1.518107169054517E1  -1.151958007557556E2  
 5.640000300000000E9    -1.226216233533158E1  -1.527966800560108E1  -7.010372099557625  -1.272327933220045E2  -7.192453670949020  -1.268303423153120E2  -1.502468197196968E1   1.138625202424465E2  
 5.670000275000000E9    -1.013922236085422E1  -5.724041281821149E1  -6.893257310875205   1.234131729059936E2  -6.860348888782894   1.239974800229702E2  -1.974258765262413E1  -7.658817270985719E1  
 5.700000250000000E9    -1.051657097573528E1  -8.733225331961154E1  -6.770121536402102   1.402359491880173E1  -6.770423356037601   1.310242388928553E1  -1.223507171918507E1   1.338415337211398E2  
 5.730000225000000E9    -1.581452403163571E1  -1.470921177152870E2  -7.017431210129359  -9.457751312380961E1  -7.040274178472068  -9.559038305776790E1  -2.051012581115088E1  -5.891883879424826E1  
 5.760000200000000E9    -1.416071267086269E1   1.119279367868339E2  -6.851493501295077   1.575575799901071E2  -6.826510241215079   1.574463520592484E2  -1.492364972236510E1   1.561312487397746E2  
 5.790000175000000E9    -1.184654204027806E1   7.381538530551099E1  -6.478441659110755   4.984762471430665E1  -6.322785030654791   4.885347090983082E1  -1.827549006990197E1  -1.037616088380746E1  
 5.820000150000000E9    -1.262781334757516E1   3.812645194855431E1  -6.046445744552541  -6.221439631757941E1  -6.145782676681963  -6.296417131816634E1  -1.726170243753609E1  -1.755930279341280E2  
 5.850000125000000E9    -1.560023744991326E1  -3.760620197177841E1  -6.106904815110113  -1.713055613399274E2  -6.168702790838275  -1.708699819524321E2  -2.020707284990275E1  -1.427509323810834E1  
 5.880000100000000E9    -1.275145649631186E1  -1.143514114348609E2  -6.144261960100184   7.829466579996236E1  -5.953497481608014   7.894360705017907E1  -1.490461791420721E1  -1.731845161051225E2  
 5.910000075000000E9    -1.158371539186209E1  -1.393906780221111E2  -5.984484460111466  -2.986147961451322E1  -5.815845798121221  -3.010424506148679E1  -1.603530066409848E1   6.068992472665204E1  
 5.940000050000000E9    -1.465647268859801E1   1.733936797867196E2  -5.778563441831529  -1.407012692237045E2  -5.696384612612705  -1.403288379316959E2  -2.175522035074803E1  -1.689699700902598E2  
 5.970000025000000E9    -2.069379700506975E1   8.175571378255735E1  -5.693187793064979   1.120906252275362E2  -5.551824650731633   1.109743069847281E2  -1.785310977562089E1   4.205912806545503E1  
 6.000000000000000E9    -1.365606006984011E1   2.147786748214359E1  -5.399054324905396   1.292382443261700  -5.390235940554845   7.114035954792675E-1  -1.983496012403020E1  -9.043613997532005E1  
